SCC=(THIRDFULL=TRUE DAMPXH=TRUE ALMIX=0.3)
SCC=(READCHARGE=NONE)
DC=(SUBTYPE=AUTO DELTARXYZ=3.0 BUFRAD=6.0)
MD=(NSTEP=10000 DELTAT=5.0D-16)
MD=(RESTART=FALSE READVELOCITY=FALSE)
MD=(NVT=TRUE NVTTYPE=5 BATHTEMP=313.15)
MD=(COLLISIONFREQ=0.01)
MD=(INITTEMP=313.15 ERRORTEMP=1000)
MD=(LIMULLIKEN=TRUE LIDEGREE=10 LIMINDEG=TRUE)
MD=(PRINT=1 SEEDTYPE=2)
MISC=(PRINTLAPTIME=TRUE)
MISC=(WRITECHRGFILE=FALSE)
PBC=TRUE

DC-DFTB3/3ob, PBC (NVT)

4
H   1 -0.1857
  params/H-H.skf params/H-O.skf params/H-C.skf params/H-N.skf
O   2 -0.1575
  params/O-H.skf params/O-O.skf params/O-C.skf params/O-N.skf
C   2 -0.1492
  params/C-H.skf params/C-O.skf params/C-C.skf params/C-N.skf
N   2 -0.1535
  params/N-H.skf params/N-O.skf params/N-C.skf params/N-N.skf

  983  0  1
N     12.36575600    10.60730270    12.04637720
H     11.43686580    10.59859090    12.47008510
C     13.12291430     9.42484470    11.85473730
C     14.29316430     9.74437520    10.98888300
C     14.15782740    11.07525920    10.63826940
C     12.86894420    11.55981640    11.20630930
C     15.32299040     8.73389630    10.53845120
H     15.43347640     8.76729870     9.44050120
H     15.04736330     7.69486090    10.78994560
H     16.32931710     8.87834930    10.96886830
O     12.81750970     8.35997100    12.35736660
C     14.89618210    11.74057670     9.69302650
H     14.31663230    12.28316590     8.93597030
C     16.20558170    11.60376740     9.42409040
H     16.73474880    12.08881470     8.59853170
H     16.75937080    10.96744440    10.12068460
C     12.25326440    12.77469250    10.86850640
H     12.76951690    13.46191980    10.18688110
N     10.01679230    12.83569340    11.99829200
H     10.03059290    11.86427500    12.30240440
C     11.00220780    13.41324810    11.26937010
C     10.59730150    14.75375370    10.93057820
C      9.34873490    14.95848080    11.44923970
C      8.92907910    13.70968250    12.09778210
C     11.48386480    15.75483320    10.22233390
H     12.48481850    15.62936590    10.67085080
H     11.28190420    16.83696750    10.30607700
H     11.70782380    15.44005390     9.18813130
C      7.68618580    13.49165150    12.67800050
H      7.04070710    14.36142920    12.84551050
N      7.40585850    10.94129470    12.52881530
H      7.92960020    10.72006320    11.68437290
C      7.10290190    12.21995540    13.05752090
C      5.98695140    12.07383920    13.89758300
C      5.74552630    10.70295910    13.98881340
C      6.55406620     9.99977210    13.09262180
C      4.67661620    10.15448470    14.98708340
H      3.68880410    10.56839750    14.71928310
H      4.77081390    10.51841550    16.02510830
H      4.49943210     9.06479740    14.98522470
C      6.64077760     8.63429070    13.01236250
H      5.99807120     8.09212400    13.71535590
N      8.47057720     8.23579600    11.36959930
H      8.66186710     9.19584270    11.07949450
C      7.54672290     7.88050890    12.29510970
C      7.53266860     6.35894350    12.16707320
C      8.42605300     5.97832250    11.24538710
C      9.14320660     7.17963550    10.75058940
C      6.75827070     5.40914300    13.07724670
H      6.68407010     4.39227910    12.65381340
H      5.74926280     5.66363670    13.44596390
H      7.31369450     5.21517230    14.01142980
O     10.05761050     7.33320670    10.00455570
C      8.75291160     4.66034170    10.83598420
H      8.26181320     3.80221220    11.30890750
C      9.56414030     4.32981780     9.83783340
H      9.92760560     3.29926630     9.78594110
H     10.01784900     5.09027430     9.19542600
C      5.36724090    13.17689700    14.75450230
C      4.05348830    13.67705150    14.08734700
C      4.34174680    14.28264620    12.68980600
O      3.96796270    13.48291780    11.66146660
O      4.77371450    15.42044640    12.55547140
H      6.04031470    14.03723530    14.91451550
H      5.13473270    12.83736230    15.77894020
H      3.51120210    14.40293120    14.71809290
H      3.40349960    12.79366020    13.96103950
H      3.80239010    12.63124940    12.10189440
C      8.56979940    16.20983120    11.31392860
C      7.76542900    16.41433330    10.06152920
C      8.60478210    16.48107720     8.85422610
O      8.96896650    15.46882250     8.32159230
O      9.00143620    17.71949390     8.40264320
H      7.90552140    16.37051580    12.18094730
H      9.29743000    17.03223610    11.42803000
H      7.15373040    15.49726680    10.00128460
H      7.17086270    17.31903460    10.27793030
H      8.72209170    18.40290830     9.03639410
O      4.08500430     9.46784780    21.44917870
H      3.92914650     9.31697180    22.38147540
H      3.93137650    10.40499590    21.32924650
O      1.16335880    22.12720110    22.80228610
H      0.88842310    23.03703880    22.91559600
H      1.33386810    21.81603050    23.69129180
O      5.97736260     4.17422250    19.12257000
H      6.42845820     4.20394710    18.27885250
H      5.56296630     3.31160070    19.14234730
O      2.80183630    11.16004850     0.64461300
H      3.03936980    11.33216290    -0.26653260
H      3.16973900    10.29580120     0.82888750
O     13.35469630    17.05199430    17.58602910
H     13.86654000    16.35301780    17.99306870
H     12.45970250    16.90189740    17.89047620
O      4.27648880     7.58064700    11.14415740
H      4.57347060     8.12668040    10.41622830
H      4.30381160     6.68770550    10.80044170
O     12.41142270     3.61406330    17.63575170
H     12.55420020     4.48409990    18.00842290
H     11.68073750     3.73057600    17.02849960
O      7.09838250     0.51052110     6.30040880
H      6.69606920     1.33593310     6.03009270
H      8.02352710     0.72367370     6.42249490
O      5.75736810     5.48640490    16.68348120
H      5.20124670     5.91603520    17.33338740
H      6.56831600     5.99490310    16.68849370
O     17.01105690     0.30714670     4.33429670
H     17.22388460    -0.60304420     4.12816910
H     17.61058240     0.82161580     3.79381320
O     15.67380430     4.71001820    21.96820450
H     16.13831330     3.95057250    22.31992340
H     14.84953880     4.73287010    22.45430760
O     15.14639850    14.00357250    18.01258090
H     15.56403350    14.74627490    17.57645610
H     14.77958680    13.48196220    17.29871560
O     13.98893930     4.61236620     7.02262160
H     13.40913870     5.27688070     7.39475440
H     14.56409840     5.09957740     6.43266490
O      9.96568970     2.47962860     0.84316290
H     10.14197060     3.18027210     1.47106060
H      9.63006880     1.75901400     1.37636540
O     11.34380150    18.52164270     5.67954110
H     10.89293960    19.05703740     5.02661940
H     11.28722380    17.62924960     5.33797740
O      9.53626060     4.32233810    17.88985440
H      9.02442170     5.09804110    17.66064260
H      9.91593650     4.52962300    18.74373440
O      8.50986580     1.51637070     3.22669080
H      8.33457370     1.94134460     4.06627510
H      7.70893860     1.64859280     2.71947860
O      0.54710690     3.31725930     6.83570670
H      0.98838630     3.63877060     6.04949140
H     -0.38026220     3.29893880     6.59930940
O      2.99090600    22.09849550    16.86673550
H      3.07040640    21.44896890    17.56532480
H      3.83922860    22.07889560    16.42379570
O     12.78320410     2.25400830     9.22976880
H     12.50305750     1.97661240     8.35752960
H     12.69870850     1.46813760     9.76967620
O      2.15004560    17.15465160     5.36565780
H      1.74290670    17.05368800     4.50526480
H      1.83237470    16.40588570     5.87030510
O      1.33470740    18.76615330     9.97816090
H      1.23274050    19.70268820     9.80864430
H      2.11234310    18.51573750     9.47935390
O      9.11664960    10.68256190    10.18922040
H      9.38463120    10.24746510     9.37983230
H      9.16214850    11.61669830     9.98537920
O     17.17340280    17.80277440    23.30653570
H     17.19335370    17.89012910    22.35353850
H     16.48749920    17.15632440    23.47348790
O      2.32097650     3.87515500     4.78782320
H      2.85199380     4.26523590     4.09349630
H      2.87879400     3.19280480     5.16127820
O      6.97668310     1.88022790     9.39823440
H      7.64701180     2.26984120     8.83690260
H      7.40682980     1.77421030    10.24674220
O      0.93647880    21.01943020    14.88794900
H      1.56783310    21.05270000    15.60663990
H      1.31263170    20.39519690    14.26740650
O     13.60949610    20.44344710    10.12633130
H     13.22516920    20.09034350     9.32393260
H     14.42255780    20.85932160     9.83960630
O     11.94030190     6.73743300    18.43685720
H     11.38581660     6.41902690    19.14917370
H     12.77981190     6.92984440    18.85450740
O     12.69366550    17.02792930    21.32022860
H     12.85501000    17.90975380    21.65576930
H     12.13906670    17.16186900    20.55165100
O      3.79586940    10.78114220    11.95679280
H      3.43886420     9.97243310    12.32390120
H      4.43914750    10.48775010    11.31154440
O     16.75155640    15.18109320    14.35809900
H     16.91592220    16.01079940    13.90998840
H     15.82954600    14.99282650    14.18293570
O     13.88142780     7.08775470     0.55271540
H     14.69947810     7.30997040     0.10814210
H     13.85288720     7.67394690     1.30888760
O     15.91101070     1.93560060     6.11569980
H     15.62335590     2.55183940     5.44210000
H     16.24283790     1.18310490     5.62593170
O      3.83869720    17.92373280     8.42526250
H      4.42777870    17.19168850     8.24270340
H      3.98465040    18.12377930     9.34987550
O      3.93892150    11.12594410    18.68179130
H      3.19603280    11.68335630    18.45018770
H      3.56648210    10.24685960    18.75057220
O      3.41011640     6.55254030    14.73121550
H      3.71695160     6.46622990    15.63378620
H      2.51149960     6.22342250    14.75122550
O     11.31993010     8.86467080    20.89713860
H     10.96852110     7.97436290    20.88749120
H     11.39071370     9.08417130    21.82613950
O      5.69411370    11.61561970     6.03848410
H      5.20747800    11.86183170     6.82512090
H      5.08651300    11.06644150     5.54304980
O     13.64330580    22.49721910     5.76119140
H     14.04228970    23.36420820     5.68788810
H     14.36749940    21.91997910     6.00320100
O     13.61234190    10.29713250    22.59212880
H     13.53561210     9.94936470    23.48061180
H     13.94555280     9.56334020    22.07564930
O      9.22326950    16.43941880    22.32413290
H      8.56395630    16.03214070    22.88597110
H     10.03984260    15.99511720    22.55224420
O     10.23875710    10.44189830    13.94963650
H     10.30354500     9.49207210    14.04895590
H      9.92117310    10.75034810    14.79830070
O      8.98424910    11.48356250     5.34939240
H      8.24628830    10.87414740     5.36545660
H      9.61570260    11.07942490     4.75426910
O     12.46303180     5.17737440     3.72157980
H     12.71910570     5.58748480     2.89546420
H     12.06179710     5.88502930     4.22602700
O      6.31834750    20.97215840    19.77936740
H      5.61590190    20.32515720    19.84410290
H      6.46348000    21.07482530    18.83881950
O     14.77359010    19.71267890    12.45826530
H     15.60213090    19.33333210    12.16526600
H     14.30843540    19.92589570    11.64931390
O     12.23751830    20.90894890     3.21148440
H     11.61490250    21.42780880     3.72076420
H     13.07831570    21.34720230     3.34273200
O      5.31350180    22.23340030    15.59875490
H      5.75414280    21.38576130    15.65856080
H      5.92062760    22.84850880    16.01017950
O      9.73363490    21.91060450     0.93909820
H     10.58633800    22.33058740     0.82620350
H      9.90131860    20.98164370     0.78052310
O      6.99884320    21.16218190     1.52818760
H      7.13306330    20.61506460     0.75431480
H      7.79805040    21.68490030     1.59349810
O      7.99521060     1.72066920    21.22626300
H      8.54843810     2.13612080    20.56477170
H      8.58476640     1.12981550    21.69482230
O     18.31029320    11.09822850    18.35158540
H     17.41475680    11.06921290    18.68833920
H     18.71204760    11.84047030    18.80314060
O      4.72422410     3.20050720    15.83230780
H      5.19316960     2.75333400    16.53683470
H      5.01098970     4.11163330    15.89432530
O      4.24592300     1.39021530     8.54098800
H      4.24708800     0.46729340     8.28712560
H      5.11154990     1.53458540     8.92319010
O     14.46313100    14.97778700    20.94548800
H     14.34630870    14.54078480    20.10191540
H     13.81975940    15.68649290    20.93922230
O      8.57634740     3.02081440     7.01806830
H      8.47437860     3.82637640     6.51121190
H      9.48455720     2.75761510     6.86936520
O     14.78956410     0.22572270     2.69576740
H     14.64725690     1.05118070     3.15901660
H     15.48266790    -0.21057860     3.19122740
O     17.95976640     5.06517360    19.71014980
H     17.76136970     6.00146910    19.69525720
H     17.34664920     4.68043520    19.08381460
O      1.51758780     8.28657150    21.03848460
H      2.40864590     8.63573460    21.02023890
H      1.19440090     8.50046920    21.91371540
O     11.89210030     0.97862800    14.83634380
H     11.66640760     1.89929950    14.70345690
H     12.82204150     0.92574440    14.61579040
O     16.25844570    21.41339870     9.36860850
H     16.03811450    21.52931980     8.44435310
H     16.61999700    22.25825500     9.63643170
O      8.91001990    20.55002590     4.64746430
H      9.49873160    21.30034450     4.56577440
H      8.95656780    20.11524770     3.79597570
O     13.72147180     9.60500140     1.76698120
H     13.26713560    10.44601060     1.81712330
H     14.52806660     9.73846440     2.26480200
O      3.32534240    12.26868250    21.35023120
H      3.41969900    12.24277210    20.39804460
H      2.73349600    13.00329970    21.51236530
O     12.24639230    12.79342940     6.78130580
H     11.57731060    12.81173230     7.46557660
H     12.21101670    11.90156650     6.43552830
O      1.46264850    14.05637740    16.06839750
H      1.20879950    13.19242480    15.74378110
H      0.90038700    14.66636090    15.59088900
O      9.61597060    19.88351250    15.99044800
H      9.18414970    19.08122630    16.28387260
H     10.47816180    19.59553340    15.69057270
O     16.58172040    14.66325760    22.63382150
H     15.78273110    14.89207080    22.15896030
H     16.71595570    13.73484420    22.44340130
O      4.08234930     9.52926640     4.84726240
H      4.26943300     9.22865580     5.73656800
H      3.77383090     8.74701980     4.38994650
O     11.02599430     7.81425910     2.24133970
H     11.13626000     8.06587980     1.32441000
H     10.24422170     7.26195100     2.24579450
O      6.51648860    19.82482910    12.22264580
H      5.89640520    20.42146490    11.80341340
H      7.12387940    19.58104130    11.52416520
O      6.01843210    17.82930180     3.22005580
H      6.06034520    16.87451170     3.27344230
H      6.56678060    18.05141640     2.46758560
O      7.93747000     8.52982900    19.27325820
H      8.57270810     7.82323220    19.38911630
H      7.13234950     8.19525150    19.66831780
O      7.21338800    20.21405220    15.07757950
H      7.10389280    20.15665630    14.12839600
H      8.14776330    20.06317900    15.22045040
O      4.67262510    16.52987670    18.02951810
H      5.10176470    16.83039470    18.83061790
H      3.75870080    16.39879230    18.28208920
O      0.42189330     6.85129500     7.58175610
H     -0.44666280     6.73601390     7.19633050
H      0.40625110     6.31273030     8.37291620
O      7.21703100     3.08731790    23.53274350
H      7.36164860     3.17260690    22.59038350
H      8.08944990     2.93554070    23.89617350
O     11.86277290     0.27363550    21.53194240
H     11.87749480     0.15076600    22.48110960
H     11.29506210     1.03248060    21.39744000
O      3.83360460     1.72888170     5.96145820
H      4.15128850     1.66463170     6.86211400
H      3.15974830     1.05219350     5.89632270
O      1.72612970    21.04014020     1.94353740
H      1.17853940    20.34733580     2.31286220
H      2.07612440    21.50090980     2.70605110
O      5.66760250    21.97772600     4.19301890
H      6.14106370    21.67213060     3.41927650
H      6.31435730    21.94520760     4.89791870
O     17.66623690     8.08450320    17.00741200
H     17.87556270     7.50527140    16.27467350
H     17.32292940     8.87738130    16.59544560
O      1.75636110     4.79382800     1.36006630
H      1.15114410     5.44957110     1.01373450
H      2.41981340     5.30265860     1.82606600
O     11.56831460     5.58803320    12.53022480
H     11.99012280     6.42808290    12.71085170
H     12.12641910     5.17680220    11.87019440
O      3.13902500    20.43774030    19.03044700
H      3.11103460    21.10901830    19.71223640
H      2.47429680    19.80124280    19.29357530
O     11.27804760    12.25960160    18.37596320
H     11.43757820    11.31718440    18.32466320
H     10.32719900    12.34564970    18.30729680
O      9.49409480    19.12472720     2.38728450
H      9.44186780    19.15493580     1.43198800
H     10.19771960    18.50176240     2.56910630
O      4.60629560    18.55475230    13.68765740
H      5.03726010    17.94063950    14.28210450
H      5.32025770    19.08171840    13.32877450
O     13.59984210     1.54818480    18.93458370
H     13.47047420     2.27341130    18.32340240
H     12.90049360     1.65121160    19.57997510
O     17.68008230     3.42115590    14.12557130
H     17.78235240     3.40353110    15.07712840
H     17.27451130     2.58067230    13.91266060
O     11.25034240    16.99741940     3.28093030
H     10.58730510    16.70839690     3.90789080
H     11.48492620    16.20495220     2.79802390
O     10.03605080    16.12375450    15.10508160
H     10.61797140    15.41486930    14.83107380
H     10.60650440    16.88945200    15.17232890
O     17.31482890     7.79437590    19.59004210
H     18.16020390     7.91210600    20.02330020
H     17.49170680     7.97467180    18.66676710
O      1.92693530     7.83985280     2.57965060
H      2.43430160     7.40165190     3.26287250
H      1.01448930     7.70800260     2.83711620
O     17.39149860    20.29609300     4.40658090
H     18.16670990    19.73729520     4.46156310
H     16.80124860    19.82931330     3.81501050
O     17.73003770    10.54426860     6.15205100
H     18.01123810    11.40506460     5.84190750
H     18.53406910    10.12642960     6.46055410
O     12.81869320     4.94608930    22.94026950
H     12.08378980     5.05329560    22.33640480
H     12.92031760     5.80571600    23.34886170
O     16.35892870    16.23178670    16.99171260
H     17.09744070    16.64553830    17.43852420
H     16.57466320    16.29722210    16.06143950
O      0.24537960    16.27440450    10.85992340
H      0.74156400    17.03787990    10.56473260
H     -0.24699390    16.58749390    11.61872100
O     12.17954160     0.43603600     0.95653970
H     13.06484600     0.19634020     1.23042620
H     11.78247830     0.81951080     1.73853700
O      1.11441240    14.77901650    21.26614950
H      1.37231460    14.97667310    22.16650960
H      0.15955370    14.84579280    21.27037050
O      4.97085860    13.96923070    23.14582440
H      4.73805760    13.73179050    24.04340930
H      4.95163060    13.14101220    22.66632840
O     12.69675540    18.71280480     8.05006220
H     13.24674130    17.94027710     8.18024920
H     12.27841470    18.56870270     7.20126490
O      3.71668080     8.58569340     0.57096680
H      4.36100860     7.94788120     0.26393470
H      3.26424240     8.14256670     1.28872050
O     16.01050380    19.71260260    16.01822090
H     15.84222130    20.65060040    16.10806850
H     16.39852140    19.45762250    16.85527420
O      1.05752580     0.55641970    11.12781910
H      1.86847700     0.46954430    11.62885950
H      1.16246810     1.37462130    10.64226250
O     15.60804940     1.78486050    15.93887140
H     16.33485600     1.37990610    15.46558860
H     15.19254110     1.05977380    16.40559770
O      0.02269280     3.22875980    16.97166440
H      0.78190150     2.65355540    16.87693210
H     -0.65660270     2.66883180    17.34752270
O      6.32354880     2.77706670     4.70172690
H      6.12463140     3.59535500     5.15677400
H      5.54817530     2.23260070     4.83805130
O      8.41877170    11.01576230    15.95554830
H      7.65707110    10.45605090    16.10643390
H      8.28597740    11.76324560    16.53852840
O     10.74796010     9.40072350     0.05547190
H     11.13066100     9.89055060     0.78337350
H      9.94191930     9.87284370    -0.15340990
O     15.12367150    11.83221630    14.49794200
H     15.07394410    12.44955640    13.76811310
H     14.34025860    12.01216980    15.01766680
O      5.06120540     8.60445790     7.06836940
H      4.47292520     7.99841450     7.51877880
H      5.92877530     8.39987560     7.41722580
O      1.83319490     3.12203410    19.91709900
H      1.28318230     2.37705420    20.15942380
H      1.24714860     3.87745140    19.96322250
O     14.83129500    12.16358760     3.19280290
H     14.97369380    11.66493800     3.99735430
H     15.67207810    12.12756920     2.73671360
O     15.61446950    20.84859660     6.32928610
H     15.01202300    20.13800430     6.10940070
H     16.36308290    20.71655080     5.74758720
O     12.20721910     6.26942780     8.64123440
H     12.47322850     5.68365530     9.34999560
H     11.49287320     6.78662440     9.01332190
O     11.30571560    15.05137830    19.38187220
H     11.27162740    14.09492110    19.39792250
H     10.38812350    15.32384680    19.38593670
O     14.39898970     7.70566510    19.49343490
H     15.25805000     7.41729590    19.80179980
H     14.55422310     8.57934950    19.13453480
O      8.68021870    16.57893370    19.64692880
H      9.13578700    16.65404890    20.48540690
H      7.81940790    16.22647480    19.87278180
O      1.86218660    18.49273680    20.74029920
H      2.39985870    18.31602480    21.51225470
H      2.04430030    17.76218220    20.14923480
O     11.50347900     0.24227870    17.68497470
H     11.82420730     0.22512540    16.78326990
H     12.23049930     0.60517610    18.19091800
O      7.98172810     6.78924700    16.88231470
H      8.11279870     7.55738690    17.43820380
H      8.65201090     6.86766580    16.20348930
O     12.06833360    14.50965500    14.12779240
H     11.92057420    13.91600420    13.39159970
H     12.83681490    15.02036290    13.87314130
O      1.82522210     9.31446550    17.66568950
H      1.28911600     8.76282310    17.09602930
H      1.22205750     9.98488520    17.98656270
O      4.44618750    12.82742310     8.60788630
H      3.93359660    13.07758710     9.37658600
H      4.69842860    13.65928650     8.20712380
O      6.76368380    20.33452800     6.53064920
H      7.26541420    20.08145900     5.75575880
H      6.86959930    21.28430180     6.58490660
O     17.82105450     4.02591750     4.17778250
H     18.75567820     4.02520660     3.97111990
H     17.41949080     3.51796870     3.47282430
O      7.54259010    20.19355390    22.34716610
H      7.31139470    20.95572470    21.81624600
H      8.49620820    20.13881680    22.28514100
O      9.60725780    12.72960760     7.86363510
H      9.21873570    12.53277590     7.01126240
H      9.47924140    13.67184070     7.97337200
O      0.04490870     0.83063300    15.52272420
H      0.88853000     1.24287970    15.70870020
H      0.25583570    -0.09170500    15.37769130
O      5.47515110     4.99512430     6.36825750
H      4.60228780     5.34388880     6.18741370
H      5.54506640     5.00771760     7.32281780
O      7.57008840     9.08013440     5.30716660
H      6.95384450     9.67572400     5.73348620
H      7.84517670     8.48229310     6.00225210
O     12.53906060     7.22876120    15.88140110
H     13.33819680     6.70785860    15.96060660
H     12.08045860     7.09135770    16.71027760
O     17.55204200    17.07936860     4.57239770
H     18.15637590    17.36353300     3.88664100
H     16.83028030    16.66546440     4.09913730
O     14.32086280    15.64990810    13.23847480
H     14.77322580    16.00937270    12.47533320
H     14.44524860    16.30781750    13.92251970
O     11.51708130    15.21761320    22.73861500
H     11.55536270    14.28291890    22.53585620
H     12.05711460    15.63111110    22.06510540
O     10.55564310     2.84921460    21.61717800
H     10.43008800     2.97883460    22.55721470
H     10.69017410     3.73090740    21.26968770
O      0.94253940    17.69506650     2.58349320
H      1.87363060    17.50236510     2.47318360
H      0.61904540    17.83148380     1.69300270
O      3.27195880     5.83617160    20.35836410
H      2.88435670     6.24583010    21.13178250
H      3.73759060     5.07268290    20.69968990
O      3.05663510    11.95681290     4.27104280
H      3.28025080    12.25189590     5.15373990
H      3.35032680    11.04626750     4.24130680
O      8.59874630     2.71328880    14.25627420
H      7.93246030     2.54113910    14.92160130
H      9.27457140     3.21039820    14.71711540
O      6.04647060     5.27352670     8.98122690
H      6.72598600     5.00078820     9.59775260
H      5.26100830     4.80848650     9.26935480
O     16.45239640    15.30538940     2.17781230
H     15.78883650    15.63526340     1.57192180
H     17.21461870    15.13008120     1.62598190
O     10.34338670    13.93148040     1.46068580
H      9.89345930    13.18941500     1.05678490
H     10.69438550    14.42945290     0.72240730
O      0.67192480     1.82607970     2.72710370
H      1.56971940     1.52313890     2.86282990
H      0.67087570     2.18157670     1.83836710
O     11.87287140    18.43193050    15.69278620
H     12.54616260    17.90439220    16.12245370
H     12.31729130    19.24870300    15.46562100
O     11.93354420    21.00002480    19.78641700
H     11.92298700    21.60333060    20.52948000
H     11.44651790    21.45648570    19.10035510
O      7.31297680    15.35370640     0.23523660
H      6.59700010    14.86304660    -0.16832510
H      7.06953670    15.41654400     1.15882740
O     14.62167170    17.79909710    14.59414480
H     14.41595270    18.44165230    13.91514970
H     15.12314990    18.29041480    15.24480530
O      7.89979080    22.17779730    17.29163170
H      8.23444080    21.79855540    16.47897150
H      8.45987420    22.93775940    17.44973370
O      1.47766700    14.90806390     6.50250960
H      1.05043610    14.71551130     7.33715340
H      1.31808480    14.13098340     5.96687080
O     11.40738770     3.69940660     6.62813710
H     11.58933450     4.36753800     5.96728320
H     12.27158740     3.41794200     6.92842010
O     10.30581470    19.31845860    22.73750690
H     10.18139460    18.47705650    22.29842190
H     11.25089550    19.37837790    22.87701800
O     15.88931180    18.82357220     2.38332370
H     15.28065780    18.23366550     2.82805230
H     16.01470180    18.43138120     1.51920810
O      4.59311720    17.72032930    10.92100620
H      4.67989640    18.16455650    11.76442910
H      4.75411320    16.79768180    11.11857410
O      6.13547040    17.47266200    20.05336000
H      5.66084910    17.45700650    20.88445660
H      6.93595310    17.96171190    20.24385640
O      1.48452960     5.83617930    12.26853660
H      1.07074940     6.13663340    13.07769970
H      2.31496070     5.45365760    12.55189800
O      8.99140830    11.67166420     1.20122190
H      8.53601360    11.07235910     1.79255950
H      8.34558680    11.87833120     0.52562180
O     13.78306480     3.36671730    14.41867260
H     14.36682800     2.73762890    14.84258270
H     14.36246010     3.90632960    13.88075920
O      2.84937310     8.56559560    13.01763630
H      3.37510510     8.16254520    12.32670400
H      2.91786220     7.95935680    13.75520990
O     14.23973850    22.31036190    13.49790860
H     15.02410030    22.85799220    13.46460820
H     14.56377700    21.41952900    13.36505890
O      9.04113390     5.58301310     5.44906810
H      9.83709810     6.10737280     5.53693440
H      8.37470440     6.07747030     5.92615840
O      7.30613800    14.59528540    20.93606950
H      7.89046050    14.97241970    21.59376910
H      6.43468810    14.65486720    21.32755090
O     11.24361130     3.69379520    14.68350410
H     10.96788880     4.32815120    14.02183820
H     12.19956400     3.69705150    14.63476180
O      4.28611420     3.86620140    21.69739720
H      3.49936820     3.43925570    21.35831260
H      4.99437860     3.25230930    21.50315480
O     12.38349150     0.29647740    11.02435970
H     13.16959670    -0.01555070    11.47258950
H     11.71014020     0.31184610    11.70450210
O     16.78615000    19.14257620    10.63096900
H     17.69367790    18.85083010    10.54432770
H     16.74873730    19.95967100    10.13378810
O     10.00007440     4.01676940     3.15481930
H      9.33344460     4.45033360     3.68760300
H     10.81520180     4.14520030     3.63990190
O      3.98502730     1.73492180    19.64728160
H      3.66235380     1.00285380    20.17281910
H      3.20932460     2.27044200    19.48074340
O      8.52811810    12.76139160    18.30865670
H      7.83377080    12.28022380    18.75875660
H      8.11068150    13.57462880    18.02471160
O     17.20718960    20.20700840    18.59798050
H     16.25435260    20.12523270    18.63855170
H     17.48252300    20.25655940    19.51338580
O      3.94257760    21.18270300     8.04912380
H      4.68294290    20.88570790     7.52008250
H      3.18931960    20.71173100     7.69272660
O     14.44401840    19.79656030    18.48913380
H     14.09266280    20.02356150    19.35009190
H     13.93439290    19.03372760    18.21600150
O      0.31683170     9.32337280    -0.04045120
H      0.90468620    10.07873440    -0.03111430
H      0.27259170     9.04299160     0.87369380
O     17.55154230     0.63932500    18.38921360
H     16.84874730     0.70459660    17.74264340
H     17.89464570    -0.24773060    18.28130530
O      9.92364410    16.05939480     5.73474070
H      9.51694490    16.32548900     6.55937390
H      9.27077390    15.49871250     5.31565950
O      7.58109660     6.08809610    22.49794960
H      6.85689450     6.24589870    21.89225960
H      8.34788610     5.98858310    21.93371200
O      1.72272690     2.63991740     9.21899510
H      1.19777310     2.81180140     8.43725870
H      2.54396840     2.28178880     8.88204000
O      4.73646310    22.49849320     0.68034260
H      5.12661840    22.65929600    -0.17881580
H      5.43788390    22.09259410     1.18974080
O      8.89002510    14.07269480     3.89686660
H      8.84888650    13.18893050     4.26224760
H      9.36566830    13.96921730     3.07267740
O      9.22683530    19.85555080    18.79406740
H      9.53097630    19.95879170    17.89236260
H      8.40565490    20.34624100    18.82752040
O      4.11010690     5.29651210     2.52482300
H      4.11156890     5.60074000     1.61725740
H      5.02904940     5.33106660     2.79049680
O     17.79161260    13.16577720     4.97438480
H     17.97985460    13.59579660     4.14019110
H     16.84871290    13.27857590     5.09458880
O      9.88642980     9.72159960     7.86621670
H     10.83572860     9.64253430     7.77234790
H      9.65306280    10.47053340     7.31770130
O      2.55204030     6.99023200     5.08616970
H      2.23625400     6.13384960     5.37447690
H      2.71049330     7.47267480     5.89757160
O     11.71375560     9.74236200    18.50894550
H     11.53058530     8.99462030    17.94011880
H     11.71656800     9.37566660    19.39311600
O      4.02088500    19.50804330     1.24424790
H      3.25502820    20.05575750     1.41659460
H      4.73904230    20.13015370     1.12823260
O     14.00984290     8.23470020     4.88489390
H     14.48759370     8.59630010     4.13841390
H     14.63915160     8.25743010     5.60578680
O      4.79075150     9.87840270     9.41263100
H      4.40907340     9.43202110     8.65678980
H      4.98114440    10.76210780     9.09791180
O      4.32436370    16.53069310    22.19145200
H      4.42091270    16.83920670    23.09241290
H      4.21911480    15.58278470    22.27285770
O     16.09479710     9.49651620     3.42988610
H     16.74556920     8.79597090     3.47419640
H     16.45966720    10.12320230     2.80509260
O     16.43306350    17.27976800    20.74662970
H     16.19203950    16.35407070    20.71166230
H     15.93729020    17.68342590    20.03423690
O      6.56085250    11.30796240    19.01257710
H      6.83376310    10.43520260    18.72966000
H      5.60571150    11.29161170    18.95200350
O      5.87377550    17.02124790    15.49982740
H      5.44295640    16.77729800    16.31904220
H      6.75251960    17.29431150    15.76341250
O      3.77851320     4.68674660    10.40249160
H      3.00423620     4.36306380     9.94210430
H      3.64358400     4.42312960    11.31272890
O      9.64072610    22.06492040     9.41515540
H      9.90572360    21.55662350     8.64857670
H     10.41236500    22.58699610     9.63479800
O     17.63193700     6.18654300     0.53229930
H     16.78591540     5.74014900     0.49752940
H     17.58506200     6.84310010    -0.16265970
O      0.71470280     8.70732400    10.17194370
H      0.92954180     7.78150030    10.28563500
H      0.75920310     9.07373330    11.05511760
O      3.18445990     6.78433660     8.45001410
H      3.44273970     6.20084050     9.16349510
H      2.24546840     6.63182780     8.34387780
O     10.65591530    10.15808680     3.54393100
H     11.15377810    10.75317380     2.98336240
H     10.82271860     9.28919030     3.17865370
O      1.66924300     9.40762620     7.42972280
H      1.64616790     9.90170760     8.24922470
H      1.16405310     8.61558530     7.61326650
O      3.07072470    22.10301210    20.91491320
H      3.62404850    21.86276250    21.65811160
H      2.22907660    22.33428190    21.30781560
O      0.65326140    13.22215650    13.27561470
H      0.08779450    13.74055290    13.84810450
H      0.65245360    13.69692040    12.44445230
O     14.28658490    16.82365610     3.66630360
H     13.52227780    16.39884760     4.05566790
H     14.87053010    16.10117720     3.43551210
O     16.49933820     0.52545030     0.53184940
H     15.92774200     0.57211910     1.29822520
H     16.10454940     1.12802970    -0.09844520
O      7.34898610    10.93616200    21.94613460
H      6.87682390    10.78864480    21.12666320
H      8.25917530    11.06341170    21.67856220
O     12.66293330    15.02104190     5.35242030
H     12.57938000    14.06749730     5.35031030
H     11.85948940    15.33094790     5.77035280
O      8.80394270    19.63083460    10.44962410
H      8.93578150    20.57360270    10.34942250
H      9.55598640    19.33714100    10.96382900
O     16.07102390     3.70935250     1.89166080
H     16.47846030     3.46488760     1.06071930
H     15.13980770     3.52812530     1.76427880
O      1.36901100    12.93589690     2.09097980
H      1.97708140    12.35861210     1.62921800
H      1.34535610    12.59340570     2.98449640
O      0.08809110    20.42963980    21.18416600
H      0.69168870    19.68708610    21.20692250
H      0.41500870    21.02480130    21.85880660
O     15.53758810    21.01655390    22.54746440
H     15.95104690    21.71833800    23.05023960
O      8.13978290     6.81676150     1.61612840
H      8.15890220     6.65519860     0.67285550
H      7.59382010     6.11391310     1.96849270
O     16.10409550     7.47083810    22.03413390
H     16.55552480     7.70369860    21.22282600
H     16.02270320     6.51779410    21.99788480
O      1.91715630    13.33083530    18.65509220
H      1.78737270    13.93427090    19.38670160
H      1.80084240    13.87237550    17.87442780
O     12.25624850    11.82628440     2.19400480
H     11.59366510    12.45707510     1.91237130
H     13.07749750    12.31768700     2.17656140
O      9.16035560     1.73501190    17.93070220
H     10.10101130     1.60871350    17.80641940
H      9.06739810     2.66791870    18.12377360
O      2.22256110     2.29044060     0.55357040
H      3.14725140     2.04741760     0.50754110
H      2.23040410     3.22201400     0.77343790
O     13.22210500     4.66793970    10.70692630
H     14.12843130     4.63515520    11.01307960
H     13.14312460     3.92221740    10.11203770
O     15.27145000    14.01865770     6.19790030
H     15.24974730    14.37571140     7.08574770
H     14.38151260    14.14279370     5.86800340
O      1.07913790    21.57994650     9.19524190
H      1.16260920    21.94850350     8.31579300
H      0.92077750    22.33757780     9.75840280
O     11.23774340     1.22808730     3.41169330
H     10.39587120     1.66098540     3.26998730
H     11.11794090     0.73023360     4.22040890
O      1.60271280    20.18075180     6.04813620
H      2.36368200    19.60231400     5.99748040
H      0.96675890    19.69450950     6.57288690
O     14.86160560     5.68184230    16.21263500
H     15.18455030     5.68491700    17.11370660
H     14.50277140     4.80298850    16.08980940
O     14.62385560    10.16118810    18.07991030
H     14.90330600     9.78685570    17.24443820
H     13.67003630    10.08129690    18.07107930
O     11.68290140     6.83829450     5.83106040
H     12.17618470     7.60886620     5.54977370
H     11.92935660     6.71775870     6.74810080
O      3.01694770     1.39078560    13.38366220
H      3.95118450     1.19118870    13.32370950
H      2.79668620     1.23270500    14.30166440
O     13.76499840     2.74774840     4.14915990
H     12.94604680     3.05400180     4.53872250
H     13.76915650     3.12777040     3.27063970
O     15.72767450     9.51437090    15.43217660
H     15.67690370    10.33190440    14.93690590
H     15.44725610     8.84102250    14.81233790
O      6.78250740    14.68050000    17.46187400
H      6.99498030    15.40832900    16.87761880
H      5.97732500    14.95354650    17.90159800
O     17.64522550    19.66061210     7.78932000
H     17.79070470    20.47299000     8.27420040
H     16.84479140    19.82021520     7.28925470
O      3.51544070    16.92107010     1.94368580
H      3.78045180    17.74834440     1.54166540
H      4.09907440    16.82254790     2.69594670
O      2.13433100    16.55052570    19.25227550
H      1.79535880    15.95822140    19.92347150
H      1.37320150    16.75956150    18.71078110
O     15.03866770    11.07338330     5.72094680
H     15.12625310    11.97048090     6.04309130
H     15.88822270    10.67048450     5.90027900
O     13.68683620     3.09028430     1.14181710
H     13.50530430     2.29600570     0.63942380
H     13.41706180     3.80521390     0.56533660
O     16.48077770     1.49209730     8.64175220
H     16.29842000     1.68042310     7.72114800
H     16.06715010     2.21088410     9.11975860
O     18.40504650    11.67747400    15.76717950
H     17.76083370    11.20516590    15.23978330
H     18.11720280    11.54663850    16.67065050
O      4.86458830    15.05468750     7.06280470
H      3.96246290    14.98750500     6.74993470
H      5.17967370    15.88620760     6.70850940
O      0.43906040    14.29083250     9.02727410
H      0.47525330    14.97724530     9.69342800
H      0.85353580    13.53360560     9.44085500
O      9.84354780    11.08699610    20.71519280
H     10.47986700    10.41087630    20.48240090
H      9.55724240    11.44582270    19.87524800
O     15.36644270     4.96497870    12.60043720
H     15.21235080     5.84996270    12.93102930
H     16.22943880     4.72906060    12.94074730
O      1.87425430    18.60812380    12.93010430
H      2.69391270    19.01465420    13.21140100
H      2.05220440    18.30034450    12.04137610
O     10.55425640    22.15460210    13.02040200
H     10.80828760    22.78399090    13.69536110
H     10.23654370    21.39502910    13.50860120
O      3.52350450     6.90322540    17.74016000
H      3.00604440     7.70488210    17.66391940
H      3.24418740     6.51583810    18.56970410
O      2.14213780    14.99223140     0.14665140
H      1.77464310    14.29431530     0.68895700
H      2.59781670    15.56215480     0.76614790
O      8.13841530    17.25560000    16.83961870
H      8.25258450    17.20088770    17.78840830
H      8.89154530    16.78663440    16.48031620
O      4.75610540     6.09407090    23.36751370
H      5.70121150     6.11667200    23.51749610
H      4.61760900     5.31488280    22.82907490
O      2.30858830     2.03632070    16.33986470
H      2.56510190     1.16250170    16.63460730
H      3.13541250     2.47078900    16.13050840
O     15.81788250     4.00640580     9.39982600
H     16.39888760     4.74671890     9.57475760
H     15.33566860     4.26105690     8.61315350
O     17.11927600    16.77237700     7.09705690
H     17.82248120    17.21503830     7.57222840
H     17.39637950    16.79739760     6.18118570
O      1.47068040    11.67002580     9.94543740
H      1.52181450    11.49987980    10.88600440
H      1.05749330    10.88661100     9.58243560
O      3.21542410     0.50543270     3.04744840
H      3.82028770     0.10171950     3.66985300
H      3.63586780     0.38959210     2.19536880
O      7.29045820     8.01692490     8.22606180
H      7.21896510     7.26224950     8.81051450
H      8.17235950     8.35596660     8.37946320
O     18.04101180     1.32464300    20.91314890
H     17.70411300     1.16810360    20.03097920
H     17.95694540     0.47973190    21.35506440
O     11.39199160    19.26834110    11.95821570
H     11.94959350    18.51151660    12.13856600
H     11.87869360    19.77491190    11.30803200
O     12.97700120    19.54834560    22.56212620
H     13.02631660    19.27400970    23.47784420
H     13.69711780    20.17052460    22.45937920
O      0.03277890     5.49617050    10.03225900
H     -0.08471000     4.54815200     9.97151760
H      0.63174070     5.61655950    10.76913170
O     15.85920810    11.96869950    19.57192420
H     15.65014270    12.72285080    19.02076340
H     15.28081320    11.27411840    19.25688740
O     17.54132080     3.14722200    22.94748120
H     17.78759770     2.76696250    22.10428240
H     18.37523840     3.33647250    23.37759400
O      7.71474410     9.49981310     2.43980380
H      7.64548870     9.34234910     3.38141970
H      8.05210110     8.67786220     2.08368800
O      4.49984360    21.41298680    11.07480240
H      4.63357830    22.33614540    11.28956410
H      4.09483000    21.42506030    10.20759390
O     10.83588890    22.46851160     5.56865930
H     11.79102610    22.50600430     5.61904670
H     10.59121610    21.77041820     6.17613940
O      0.51480690    17.91942600    17.63185690
H      0.35368930    18.86120990    17.57426640
H      1.14993110    17.74221990    16.93799400
O     17.04121210     0.28853740    12.82752040
H     17.80180360     0.24690830    13.40717320
H     17.40125080     0.54278700    11.97783760
O     11.39265630    18.25002860    19.35475540
H     10.43609140    18.25379180    19.38941760
H     11.63553810    19.17582510    19.34289740
O      8.10726930     1.29761110    12.07105640
H      8.63255980     0.53077110    12.29965880
H      8.33996580     1.95225940    12.72947790
O     11.40610980    12.60434440    22.19192700
H     12.10409550    11.96854780    22.34944150
H     10.81373020    12.16368390    21.58271790
O     15.92099380    11.93629460    22.58470150
H     16.05423160    11.84122470    21.64159970
H     15.05601020    11.55845640    22.74368100
O     15.22645280    16.59088520    10.87160210
H     15.68268780    17.39097600    10.61095710
H     15.35482030    15.99161340    10.13632770
O      0.86441250     5.65190080    15.25843140
H      0.72734660     4.87385510    14.71797850
H      0.87374320     5.32103780    16.15658190
O     15.03922460     7.27395200    14.00168800
H     14.13727280     7.50902220    13.78384400
H     14.97677800     6.85415510    14.85965250
O     10.36201860    20.50052830     7.42468600
H      9.99039550    19.84191510     6.83786580
H     11.09891410    20.05777550     7.84562400
O      5.73706290     7.52610060    20.51258660
H      5.11471560     6.94199510    20.07930180
H      5.22188090     8.30095960    20.73711200
O     14.89002510    22.21628190    17.45699120
H     14.77392200    22.48997690    18.36684990
H     14.29794220    21.47131730    17.35355760
O     15.00035380     4.31505680    19.43036840
H     15.51301290     4.59346770    20.18924900
H     14.49982740     3.56137800    19.74289700
O      1.34028450     0.17834560     6.55790660
H      0.79950540     0.58669320     5.88185740
H      1.51120200    -0.70363840     6.22756860
O      5.62655070     0.93753140    13.10490320
H      6.52728610     0.65115540    12.95358850
H      5.48024130     0.78465240    14.03841970
O      4.71964740    12.87704370     2.23100190
H      5.21344470    12.09702400     1.97808900
H      4.03735730    12.54909230     2.81680040
O     17.65390970     6.74752860     3.26551290
H     17.28484150     6.64257760     2.38858320
H     17.84199520     5.85463760     3.55465150
O      0.72407260    10.59710120    12.58683780
H      0.70106430    11.46992400    12.97911740
H      1.50535790    10.18786140    12.95878980
O     14.83603670    18.33679960     5.94548130
H     14.29793830    17.97281070     5.24249120
H     15.52875520    17.68935590     6.07659580
O     12.33458230    10.30278780     5.86288450
H     13.26557540    10.44841770     5.69473310
H     11.96130370    10.11938760     5.00075960
O     14.76401420     1.61216910    22.24210170
H     14.98754600     0.84383620    21.71681020
H     13.93541340     1.92037380    21.87513730
O     12.73464010    18.68663600     1.63695220
H     12.57379630    19.48266220     2.14361070
H     12.47870350    17.97412110     2.22265840
O     15.85422420    15.03842930     8.69072440
H     16.31213000    15.62830350     8.09188750
H     16.42991260    14.27721020     8.76394560
O     12.49096110    20.89521600    15.01722530
H     13.02010250    21.04780010    14.23430820
H     11.96348380    21.68876650    15.10820960
O     10.09024720     7.32691720    14.49798870
H     10.98211570     7.14923720    14.79670520
H     10.00328730     6.82171010    13.68963430
O     12.81854150    12.87303730    16.26997180
H     12.45241450    12.89057060    17.15420910
H     12.41623970    13.62148670    15.82927990
O      6.63942290    15.35634800     2.73307900
H      7.28813600    14.78086660     3.13832660
H      5.82846830    14.84794430     2.74354080
O      6.25091550    17.54939840     6.13560490
H      6.27513500    17.83981900     5.22384790
H      6.30005740    18.35777280     6.64584970
O      2.64930560    17.76907350    15.84211440
H      2.82130840    18.08563800    14.95530410
H      3.33467130    17.12026020    16.00195880
O      5.86485150     1.39713660    17.67648320
H      5.21098180     1.22496160    18.35400960
H      6.60774520     0.84224640    17.91404910
O      5.70219610     0.13131420    21.70611570
H      5.83276220    -0.34953650    20.88882260
H      6.35319760     0.83248720    21.67809490
O      3.62294200     4.15111260    13.01844600
H      3.92486930     4.28664020    13.91661260
H      3.23232150     3.27727890    13.02635860
O     16.16610150     5.85213040     5.49884410
H     16.62961200     5.04532580     5.27422330
H     16.40189550     6.46552040     4.80286600
O     14.81568810    16.75078010     0.48533890
H     14.56496330    16.55791660    -0.41808380
H     14.06396290    17.21970370     0.84762620
O     17.68434330    17.77488330    13.58240800
H     17.22102170    18.60842900    13.66466810
H     18.58905790    18.02165990    13.39050670
O     17.06398390    11.50932030     1.74803600
H     17.69741440    12.22637180     1.71914990
H     16.77035710    11.41248510     0.84214560
O      6.64478590     4.65815110     2.53440260
H      6.57056860     4.01652530     3.24082990
H      6.77358250     4.13181500     1.74534390
O      5.92992730    11.07282350     0.80120510
H      6.39600750    11.02197460    -0.03331020
H      6.32098720    10.38227460     1.33641270
TV       18.20900000     0.00000000     0.00000000
TV        0.00000000    22.68700000     0.00000000
TV        0.00000000     0.00000000    23.40900000

