SCC=(THIRDFULL=TRUE DAMPXH=TRUE ALMIX=0.3)
SCC=(READCHARGE=NONE)
DC=(SUBTYPE=AUTO DELTARXYZ=3.0 BUFRAD=6.0)
MD=(NSTEP=100 DELTAT=5.0D-16)
MD=(RESTART=FALSE READVELOCITY=FALSE)
MD=(NVT=TRUE NVTTYPE=5 BATHTEMP=313.15)
MD=(COLLISIONFREQ=0.01)
MD=(INITTEMP=313.15 ERRORTEMP=1000)
MD=(LIMULLIKEN=TRUE LIDEGREE=10 LIMINDEG=TRUE)
MD=(PRINT=1 SEEDTYPE=2)
MISC=(PRINTLAPTIME=TRUE)
MISC=(WRITECHRGFILE=FALSE)
PBC=TRUE

DC-DFTB3/3ob, PBC (NVT)

4
H   1 -0.1857
  params/H-H.skf params/H-O.skf params/H-C.skf params/H-N.skf
O   2 -0.1575
  params/O-H.skf params/O-O.skf params/O-C.skf params/O-N.skf
C   2 -0.1492
  params/C-H.skf params/C-O.skf params/C-C.skf params/C-N.skf
N   2 -0.1535
  params/N-H.skf params/N-O.skf params/N-C.skf params/N-N.skf

  272  0  1
C      7.75832220     6.39052100     5.82360080
C      9.03713610     6.90080120     6.53785900
O      8.82000830     6.71935890     7.94045640
N      6.49003840     6.99620100     6.37752630
H      7.60242410     5.31873890     5.95580670
H      7.79120350     6.55497790     4.74546720
H      9.11934570     7.97109410     6.31223960
H      9.98656460     6.41735740     6.27697470
H      8.56779860     5.79208230     8.08980560
H      5.61716840     7.02880760     5.83168980
H      6.13622280     6.57017420     7.24598310
H      6.74764730     7.97586300     6.56407450
O      8.22951220     1.64296540     8.00350280
H      8.55527110     0.83208850     7.61287310
H      7.86983920     1.37399400     8.84879680
O      6.18967580     6.02529340     0.22229780
H      5.83890770     5.91998820     1.10666480
H      7.08056590     6.34923600     0.35498910
O      0.48641040     3.36641670    11.18999100
H      1.15157440     3.68487380    11.80021480
H     -0.25538700     3.12938690    11.74657440
O      7.65816970     2.40850070    10.77150920
H      7.61620330     2.75650600    11.66221810
H      6.74464890     2.25230840    10.53210260
O     11.79963590     8.61153890     9.07772730
H     10.93682670     8.96929550     8.86843780
H     11.61670780     7.85728120     9.63796330
O      1.41032050     0.50964740     1.47987950
H      1.56667540    -0.36526290     1.12447080
O      9.92354970    13.32603360    12.83904270
H      9.08277890    13.72340300    13.06583310
H      9.70588210    12.42518620    12.59961510
O      3.49062470    11.97019390    11.15738490
H      2.57320430    11.70032980    11.11560730
H      3.45581460    12.91731830    11.29145810
O      8.85431580     8.62242510     0.45233970
H      9.38486960     7.84761000     0.26684770
H      9.05640220     8.83877370     1.36260660
O      8.86716270     9.52747440     3.02696230
H      9.43745420     8.89319040     3.46133900
H      8.93664650    10.31796930     3.56223870
O      1.31957080     9.14546870     6.51294330
H      1.29161000     8.27899170     6.91873740
H      1.55935600     8.97567840     5.60195160
O      5.65932800     3.30636670    -0.14929380
H      6.04946370     4.16924380    -0.28882590
H      6.13905670     2.94423480     0.59565750
O      1.30434540     9.10780620     3.76556110
H      1.73059770     9.62093730     3.07909390
H      0.93385150     8.35420130     3.30616380
O      1.27224280     0.44293890     6.85761260
H      0.75404100     0.94694910     7.48504590
H      1.88912890    -0.05055130     7.39812330
O      5.72864870    13.28639320     7.91419980
H      6.45907260    13.11154940     7.32078460
H      6.01425700    12.93234920     8.75640680
O     11.22758960     1.30626880     6.74638840
H     12.03932090     1.66498010     6.38770870
H     10.59138970     1.39753830     6.03705600
O      8.54438590     5.70273920     2.32326410
H      9.21209430     5.17959550     1.87973510
H      8.95830920     6.55527500     2.45773510
O      2.98354080     4.11404800    -0.31588880
H      3.65945840     3.50331850    -0.02198970
H      2.86930870     4.71665480     0.41899070
O      5.18244310     4.13877630     4.79940510
H      5.80104020     3.43141030     4.61718850
H      4.37669130     3.69156720     5.05824950
O      5.61145260     0.98238760     2.57304670
H      4.92626620     0.32394800     2.68797400
H      5.13701770     1.78949650     2.37374880
O     13.21609400     3.54346680     8.58045480
H     12.36088090     3.25296280     8.89739320
H     13.07300570     4.44720320     8.29935260
O     10.65624140    10.62270830     5.32358550
H     10.75614740    11.28495690     4.63971710
H     10.21175960    11.08042720     6.03714080
O      9.61381820    10.65015980    11.97754000
H      9.79924010    10.31127360    11.10175130
H      9.23127560     9.90794470    12.44552420
O     13.36733340     2.50267340     4.44895080
H     14.26827340     2.41434740     4.75997640
H     13.34347630     1.99615240     3.63710120
O      5.15165190     6.23653700     2.97373960
H      5.33335350     7.11733150     3.30148510
H      5.16701170     5.68264870     3.75425430
O      1.02351310    12.96807480     4.17596720
H      1.13769750    13.17427350     5.10369300
H      0.42867590    12.21817590     4.16873260
O      2.64373800     2.67989020     6.07900710
H      2.89033150     3.06322740     6.92071720
H      2.47444180     1.75856860     6.27582450
O     11.21610450     4.30604550     1.67885550
H     12.07507610     4.71894500     1.58989780
H     11.40515710     3.36929800     1.73358310
O      1.14580750    10.54508780     8.85883900
H      1.12060480    10.11938670     8.00188160
H      1.61531190    11.36497500     8.70527270
O     10.59530740     7.39473300     3.62754730
H     11.35264210     7.28693770     4.20292190
H     10.94059370     7.24747610     2.74702170
O     13.63610650     6.27816580     4.67789360
H     13.53444670     6.94215920     5.35981080
H     13.16189670     5.51688430     5.01227090
O      6.89192010    12.41155620    10.26753140
H      7.78142120    12.07969280    10.14552400
H      6.94073530    12.94046780    11.06383710
O     14.62159250    11.39913080     3.00281520
H     14.06172180    10.68096450     2.70783230
H     14.59892750    11.34363840     3.95813660
O      5.22191570     2.70693540     7.88683460
H      5.65986590     1.94150970     7.51460500
H      4.81812140     2.38373330     8.69226740
O      0.65495430    12.90053370    10.62314890
H      0.36975320    11.98731800    10.65362640
H      0.02983220    13.32725330    10.03717610
O     13.68612380     5.02931400     1.13921650
H     14.45343490     5.48919530     0.79866710
H     13.62157730     4.24017380     0.60132940
O     12.10900880    13.04933170    11.14537430
H     11.65145210    12.88868240    10.32010750
H     11.41678240    13.29492950    11.75916190
O      7.15685370    10.88397120     1.18828500
H      7.44601490    10.08472060     0.74803890
H      7.66826960    10.91039280     1.99697980
O      3.83222320     7.04422860     5.67488860
H      3.03170700     7.25979850     5.19641590
H      3.52489970     6.63595960     6.48427200
O     14.73418620    10.50486760     5.48466210
H     15.44310380     9.87185860     5.59852980
H     14.21071150    10.42421720     6.28197100
O      0.78234510     8.30208590    11.00788020
H      0.68523340     9.22956850    11.22369670
H      0.47592860     8.23321720    10.10366920
O      3.21061060    12.61011310     8.05306050
H      3.32503910    11.80993370     8.56574920
H      4.10189100    12.89339350     7.84909060
O      7.54972270     2.58526020     5.40590190
H      7.82428880     2.15831040     6.21741870
H      8.30684760     2.50615600     4.82561210
O     14.74790190     7.52358250     8.78439430
H     13.97031690     7.17846820     9.22313020
H     14.46781250     8.36703210     8.42890170
O      9.19115540     9.80652430     9.31421280
H      8.88589380    10.35033040     8.58804420
H      8.42977240     9.27857490     9.55462360
O     14.18349650    12.88359740     8.61430640
H     14.45188050    13.76581380     8.35760500
H     13.33961200    13.00691130     9.04891490
O      6.19773240     9.89917560     6.93389990
H      6.76612810    10.64851380     7.11180780
H      5.55946680     9.90802190     7.64718100
O      8.38533120    12.15394120     3.71896080
H      8.16959100    12.18908690     4.65086940
H      7.94536970    12.91606430     3.34235380
O     12.13788030     8.30236150     5.90918350
H     12.43540380     8.59593960     6.77030180
H     11.63941480     9.04250140     5.56283860
O      8.23468590     4.22827670     8.56214140
H      8.38937000     3.45171790     8.02431200
H      7.44919350     4.01744990     9.06690500
O      7.05388020     3.36807010     2.17635250
H      6.99669890     3.24213270     3.12350750
H      7.36822560     4.26622100     2.07269950
O     11.57741740     7.91694500     0.99657360
H     12.30225280     8.24024010     1.53166880
H     11.97801780     7.26907210     0.41690840
O      4.89698740     5.47539900     8.13367080
H      4.38025620     5.62007430     8.92631820
H      4.78196670     4.54524090     7.93922850
O     13.72633080     8.51215740     2.70008370
H     14.50869370     8.93347930     3.05592920
H     13.76314740     7.61638980     3.03545860
O      4.65523200    10.25557040     0.05242930
H      4.36405520    10.93289660    -0.55804380
H      5.34010360    10.67842860     0.57047760
O      4.71897750     7.83315320    11.77774140
H      4.80396990     8.72987560    12.10161880
H      5.00251050     7.28605790    12.51022240
O     14.05030440     0.58643250     1.67108640
H     14.96249580     0.52913770     1.38673460
H     13.86349680    -0.27203460     2.05104640
O      9.94545460     1.60306080     4.34974860
H      9.79284670     0.65985490     4.40724180
H     10.44435980     1.71608940     3.54070660
O      4.90357640     1.89245710    10.78721900
H      4.07441090     1.43509970    10.92700860
H      4.98121880     2.48218630    11.53716750
O     12.28371520     5.82132150     7.81736230
H     12.40488240     6.76846980     7.75057360
H     11.88128570     5.57208400     6.98539920
O     13.62187670    10.18369200     7.93634410
H     13.98116020    10.98687170     8.31323720
H     13.00012020     9.86854930     8.59234430
O      1.65987900     6.91325860     7.88160940
H      2.02168010     6.26210640     8.48271850
H      0.73835500     6.98337750     8.13082600
O     11.67974470     4.41461610     5.35886960
H     10.81353570     4.00746680     5.34696670
H     12.25361630     3.76884390     4.94670200
O      4.12394570    10.41435910     5.18950940
H      3.25659780    10.63398840     5.52965930
H      4.68300290    10.37640670     5.96555420
O     15.64522080     2.13663720     8.85179140
H     14.91491600     2.69751760     8.59044840
H     15.86145210     2.42292640     9.73921110
O      3.49518320    12.68299010     3.57171060
H      3.67880270    11.91386700     4.11112400
H      2.54875020    12.80622290     3.64457700
O     11.77808760    11.39074040     1.47164120
H     11.50353430    10.66941070     2.03779980
H     11.33574580    11.22370620     0.63937630
O      7.15036730     8.19546130    10.38682560
H      6.21650170     8.06207080    10.54910280
H      7.55436470     7.35676960    10.60956380
O     11.09140680     6.44062470    10.51145550
H     11.98870370     6.24702120    10.78276540
H     10.93660640     5.86153650     9.76518060
O      8.65308000     5.87701420    11.70242690
H      8.29569240     5.32232330    11.00901220
H      9.42302130     6.28697630    11.30827810
O      0.70779070     2.95367260     4.08703040
H      1.22338030     3.06038120     4.88641260
H      1.04919930     2.15400510     3.68677620
O     11.23351100    12.47223000     8.58187290
H     10.38997840    12.09086130     8.33847520
H     11.51436900    12.95018580     7.80154610
O      6.08449510     8.69954590     3.71001910
H      5.45921560     9.26700400     4.16085050
H      6.65249400     9.30248550     3.23036000
O      2.49511270     1.11636080    11.73938270
H      1.82684730     0.56306080    11.33501630
H      2.18611450     1.24894920    12.63558200
O     14.18936540    10.96906190    11.85953140
H     13.60896300    10.24755190    11.61706920
H     13.65771010    11.75558570    11.73724560
O     13.59328560     5.83857970    10.72049140
H     14.25892350     5.87920190    11.40715600
H     13.58246230     4.92003200    10.45144750
O      0.08764200     6.22431520    12.71711540
H      1.01905660     6.00858880    12.76360700
H      0.06237060     7.09016130    12.30980300
O     10.78508660     2.71255300     9.48797700
H     10.76280500     2.11530760     8.74029160
H     10.04082870     3.29820510     9.34896950
O      0.61980370     6.07436040     3.37108520
H     -0.20024180     6.45357560     3.68723580
H      0.52401670     5.13446000     3.52485180
O      3.44644860     5.61641650    10.37450410
H      3.24436120     4.92650990    11.00650220
H      3.83315010     6.31682110    10.89998150
O     11.47028540     1.26951520     1.87937130
H     12.17522050     0.62825300     1.78947130
H     10.72766210     0.87474450     1.42231670
O      4.53280120     9.67592330     9.15630630
H      4.20941780     8.77528000     9.17860890
H      4.37766890    10.00807190    10.04052450
O      7.23224020    13.34798720     0.30871400
H      6.69926500    13.80675030     0.95810280
H      7.08572340    12.41982270     0.49112710
O      2.50826860     6.36970950     1.60943520
H      3.27866390     6.46883340     2.16880800
H      1.76952580     6.36366460     2.21808530
O     13.59552290     2.66200610    12.40963750
H     12.99171450     2.23680140    11.80066390
H     13.47527790     2.19099240    13.23420910
O      0.73195300    11.53891370     0.36727680
H     -0.05089540    11.34891990    -0.14971720
H      0.97588090    10.69656660     0.75092140
O      2.18508550     9.29282570     1.26954810
H      2.05237600     8.35071470     1.16444930
H      3.08913730     9.43984320     0.99150190
TV       15.61200000     0.00000000     0.00000000
TV        0.00000000    13.43900000     0.00000000
TV        0.00000000     0.00000000    12.95000000

