SCC=(THIRDFULL=TRUE DAMPXH=TRUE ALMIX=0.3)
SCC=(READCHARGE=NONE)
DC=(SUBTYPE=AUTO DELTARXYZ=3.0 BUFRAD=6.0)
MD=(NSTEP=10000 DELTAT=5.0D-16)
MD=(RESTART=FALSE READVELOCITY=FALSE)
MD=(NVT=TRUE NVTTYPE=5 BATHTEMP=313.15)
MD=(COLLISIONFREQ=0.01)
MD=(INITTEMP=313.15 ERRORTEMP=1000)
MD=(LIMULLIKEN=TRUE LIDEGREE=10 LIMINDEG=TRUE)
MD=(PRINT=1 SEEDTYPE=2)
MISC=(PRINTLAPTIME=TRUE)
MISC=(WRITECHRGFILE=FALSE)
PBC=TRUE

DC-DFTB3/3ob, PBC (NVT)

4
H   1 -0.1857
  params/H-H.skf params/H-O.skf params/H-C.skf params/H-N.skf
O   2 -0.1575
  params/O-H.skf params/O-O.skf params/O-C.skf params/O-N.skf
C   2 -0.1492
  params/C-H.skf params/C-O.skf params/C-C.skf params/C-N.skf
N   2 -0.1535
  params/N-H.skf params/N-O.skf params/N-C.skf params/N-N.skf

  869  0  1
N      8.17429540    13.04808710     9.20029070
H      8.37544920    13.04335880    10.20126910
C      8.93711950    13.75494670     8.30133530
C      8.37913610    13.56318760     6.95623400
C      7.36127330    12.65196900     7.10704800
C      7.12487940    12.35307600     8.54341980
C      9.02118300    14.24645900     5.70726870
H     10.04471490    14.48547650     6.04501100
H      8.51434990    15.17826560     5.40120840
H      9.13598730    13.63631340     4.79437880
O      9.94813060    14.39610580     8.56879620
C      6.45057820    12.09705260     6.15061190
H      5.58357670    11.54812910     6.53842970
C      6.47431230    12.25573060     4.82267860
H      5.67710450    11.74157620     4.27775620
H      7.18520120    12.86545470     4.25724840
C      6.20366330    11.44528870     9.11027150
H      5.31576490    11.16022210     8.53252600
N      7.03992410    11.09900760    11.47523020
H      7.73645310    11.84102540    11.45109080
C      6.15333510    10.88572220    10.45015340
C      5.12912990     9.99434190    10.95810220
C      5.34991410     9.77304650    12.34639930
C      6.66901540    10.34904190    12.65534210
C      4.03913310     9.39898780    10.06291010
H      3.02662830     9.69853780    10.38527390
H      4.11743640     8.29787450    10.07815170
H      4.16009000     9.65487290     8.99580860
C      7.48055840    10.24984840    13.78739640
H      7.02386950     9.77678200    14.66424470
N      9.67717840    10.83187200    12.74985220
H      9.43944930    10.70963570    11.76757530
C      8.85978320    10.61524110    13.88300900
C      9.70311160    10.91128440    15.03463460
C     11.00656320    11.26590820    14.52063940
C     10.93740080    11.17473130    13.11395450
C     12.32044220    11.65137770    15.30584050
H     12.05172250    12.00367070    16.31702610
H     12.80291180    12.38723470    14.63909340
H     13.12231350    10.89473440    15.36336610
C     12.04233740    11.44530200    12.17677210
H     12.98364260    11.60586640    12.71471210
N     11.02488900    11.35272120     9.96538540
H     10.30116180    10.65141580    10.12920090
C     12.08832930    11.56022550    10.81253150
C     13.32118030    11.74778840     9.99756150
C     12.93718910    11.73072530     8.68193530
C     11.43454270    11.44868950     8.61244490
C     14.62547400    12.19796090    10.47793200
H     15.43116860    11.44427200    10.51826380
H     14.57602410    12.65197280    11.48304180
H     15.10614200    12.90969370     9.78423600
O     10.70215230    11.17680840     7.68561460
C     13.73863790    11.86604600     7.47838210
H     14.78140740    12.19112870     7.56877610
C     13.30514810    11.71812730     6.20388030
H     13.97902010    11.91416070     5.36465220
H     12.29408550    11.42691900     5.90422730
C      9.34240630    10.85519120    16.55163760
C      9.84549520     9.53408530    17.23164750
C     11.07627580     8.87063310    16.62049100
O     10.85952190     7.84448670    15.73795800
O     12.17759320     9.22951600    16.96318440
H      8.27235890    11.08279320    16.69999500
H      9.81888390    11.70400910    17.07249830
H      8.97147270     8.86536410    17.14383130
H      9.97753430     9.64033990    18.32256130
H      9.88711740     7.81165080    15.74691100
C      4.57105300     8.88554380    13.26461510
C      4.77772190     7.36651280    13.08536340
C      4.06416080     6.46924450    14.09547230
O      2.88324740     6.24657960    14.01740550
O      4.81682630     6.09836240    15.21696190
H      4.91293910     9.08017250    14.29614830
H      3.49233510     9.10598180    13.18343450
H      4.62168790     6.98222680    12.06223390
H      5.85434010     7.19720220    13.26155570
H      5.70321040     6.49522350    15.15734200
O      3.59038090    10.32447530    19.04925350
H      4.28773020    10.39322380    18.39717290
H      3.42697830     9.38453390    19.12699320
O      9.20082280     1.07497380    11.28797150
H      9.91193680     1.69725730    11.44065280
H      8.87420650     0.86512300    12.16290950
O     11.43791580     5.48536540    21.85056880
H     11.90635590     5.19116260    21.06938930
H     11.75430680     6.37663410    21.99810980
O     10.42106150    12.36804490    20.30262180
H     10.72572990    12.64888480    21.16548920
H      9.57145400    11.96002480    20.46971130
O     13.79683020    14.69405080     0.18190190
H     13.08888240    14.13074400    -0.13071050
H     14.54921630    14.10842230     0.26666820
O      5.04620460    20.20833590    19.05100060
H      5.34288070    19.92922970    18.18479350
H      5.58763690    20.97075650    19.25544740
O     17.21298410    10.90034580     7.29668710
H     17.36414530    11.17481330     8.20114800
H     17.83000370    11.42072390     6.78217320
O      6.00005770    15.39716430     3.90604590
H      5.57099680    16.09179880     3.40642310
H      5.38293360    14.66598610     3.87831350
O      8.61882780    15.74536610    16.32321550
H      7.94641540    16.37651820    16.57961460
H      9.39577960    16.00974270    16.81584360
O      8.64275650     0.31696870     1.01314750
H      7.79869220    -0.13442490     1.01857700
H      8.41808220     1.24567200     1.07026850
O      4.11341090     2.68183730    15.01616000
H      4.35299110     3.18335460    15.79546260
H      4.84811120     2.08328840    14.88129900
O     13.36229900    20.33908840     6.85439010
H     13.83657070    19.75828360     6.25944090
H     13.56105140    21.22031590     6.53789710
O      0.87611430     3.56548520     2.96246910
H      1.48218480     4.17128230     3.38899040
H      0.41822900     4.10119580     2.31471320
O     14.09369560    17.35750010    13.37934970
H     13.43508430    17.91685300    12.96753880
H     13.59419250    16.79582210    13.97201060
O     11.68905450    10.34016900     2.71541310
H     12.64034460    10.37942410     2.81409410
H     11.39401440     9.80243400     3.45027690
O     17.53665540     6.24050090    11.52945420
H     16.91943360     5.69330260    11.04381940
H     17.42193980     7.11627340    11.16054630
O      5.94716930    21.21107480     1.40288150
H      5.50687690    21.59160800     2.16286160
H      5.39251230    21.44999120     0.66024670
O      9.57383730     1.65793200     4.12858630
H      9.06684020     2.34402970     3.69447230
H      8.98857780     1.32029840     4.80660300
O     14.16660310     9.82861610     3.42595620
H     13.77926540     9.03463750     3.79446360
H     15.03876400     9.55849460     3.13855030
O     10.04748250    19.86984440    17.08957480
H     10.94652080    20.01544570    16.79502110
H      9.93167690    20.48142240    17.81675720
O      5.54554460    16.07460400    14.86438080
H      5.15279820    16.69254680    15.48092750
H      6.26522210    16.56155970    14.46291920
O      2.54234670    10.94024560    15.12791160
H      1.93232430    11.67219070    15.21934600
H      3.20788880    11.09805770    15.79752450
O     11.15956690     2.95066000    11.66859630
H     11.90128330     3.33460070    11.20096680
H     11.54213050     2.58711840    12.46716690
O     15.04160500    18.29136280    16.74290280
H     14.41928290    17.95070840    17.38547710
H     15.89968400    18.03675650    17.08217810
O     12.04904650    17.85522460    22.06916430
H     11.69781490    16.98391910    21.88560490
H     11.44916340    18.22351460    22.71780400
O      5.12645100    18.07737160    16.85860250
H      4.89998340    17.33412550    17.41764640
H      6.07549910    18.16404530    16.94819830
O     15.25903890    14.33134370     3.61032300
H     15.19697860    15.10274600     3.04701280
H     15.55436990    14.67392830     4.45391420
O     13.03776930     0.36006330    18.54661750
H     13.31991860     1.19075040    18.16375540
H     13.72861290     0.13695460    19.17046740
O      0.96428600     0.94121910     2.03791880
H      0.86133500     0.37068720     2.79957870
O      9.72762870     4.37371680     6.57772490
H      9.24527170     4.82273150     5.88349960
H      9.07418920     3.81809160     7.00261310
O      6.70308210     8.48313430     2.25683000
H      6.03565690     9.15061380     2.09793880
H      7.50336220     8.98020650     2.42624930
O     17.16350560     7.98587470    17.78452110
H     16.55365180     7.47919030    18.32078740
H     16.66039470     8.21770290    17.00390050
O     14.71646020     4.67396690    21.90113450
H     14.79501630     5.36621330    22.55753140
H     14.29363250     3.95113490    22.36477660
O     12.87935540    14.98264220    10.26928420
H     12.84112360    14.03559590    10.13558480
H     12.16795830    15.16684820    10.88264660
O      8.40419670     2.43311240    20.26633640
H      8.57072260     3.23678140    19.77377510
H      8.92480560     2.52876690    21.06386380
O      8.12482550     1.01664760    16.95167730
H      8.69237040     1.71392750    17.28019710
H      8.71474170     0.43173000    16.47617340
O      3.55694100     8.46327970    21.69775960
H      2.64554570     8.29741190    21.45676610
H      3.78041410     7.74955890    22.29516600
O      8.49653910    13.49425980    12.04482170
H      9.37959770    13.73995300    12.32063670
H      8.04051400    14.32809540    11.93085670
O      8.34116650     8.04457090    20.49922940
H      7.39640520     8.19391160    20.53602030
H      8.70418450     8.64570330    21.14968300
O      1.79645170    16.48136900    12.24398610
H      1.06794880    16.70647810    12.82263950
H      2.36936160    15.93470380    12.78172590
O      8.32092090    17.21616940     7.50331880
H      8.14503380    18.15575220     7.55309390
H      8.86562440    17.03357320     8.26894860
O      7.82546190    20.00580220     7.83318420
H      8.18808270    20.87655070     7.67028520
H      7.72326950    19.96293640     8.78394790
O      5.33832310    21.24706840     9.54423810
H      4.60962770    21.11857030    10.15146350
H      5.48671530    22.19269560     9.54487130
O      3.92548660     2.74057410     1.73947440
H      4.60808280     3.26709960     1.32346240
H      4.39792250     2.17622970     2.35148000
O      4.64700940    13.18381790    12.11188510
H      5.06246330    14.03679180    11.98514270
H      5.36607410    12.55527780    12.04774000
O      0.25637610     1.43239950    17.90895460
H     -0.62237700     1.07008770    17.79601480
H      0.65066830     1.38025070    17.03829570
O      8.22668550    17.28701780     3.61254550
H      8.13123230    17.81569100     2.82031730
H      7.63661860    16.54540820     3.47813510
O     17.04244610     8.11731240     9.50560000
H     16.24554060     7.58789490     9.53543090
H     16.88146780     8.82766250    10.12666420
O     11.37029170     0.59896920     1.28964790
H     10.43380070     0.42228340     1.20021310
H     11.63553710     0.09967490     2.06203480
O     15.10235210    13.35030650    16.59335330
H     14.49162580    13.93056580    16.13888170
H     14.95084760    13.52346710    17.52248950
O      7.14199780     3.68909760    15.60476400
H      7.60178760     4.52789640    15.64003280
H      6.59201860     3.68431210    16.38817410
O      5.66495900     0.50012950    13.54829120
H      6.31318090     0.96933630    13.02304460
H      4.98594380     0.24874040    12.92221360
O      7.11962030    18.57791520     1.56025210
H      6.30894330    18.16555400     1.85857070
H      6.83016300    19.33986280     1.05837480
O      0.18817690    17.06702800     2.72985080
H     -0.56680760    16.99365620     2.14602970
H      0.45970430    16.16237070     2.88509940
O     17.09117130     9.71670630    12.07760140
H     16.32168770    10.24586010    12.28765200
H     17.69567490    10.32899380    11.65818210
O      6.61625190     8.50214000     8.21366410
H      6.84853740     7.66605420     8.61768910
H      6.97806690     9.16246410     8.80467510
O      7.86795280    16.82076070    13.47542570
H      8.58396150    16.30987550    13.85299590
H      8.23684410    17.69536970    13.35209560
O     16.11735150    19.60817910    14.35898970
H     15.54859730    19.00550460    14.83808610
H     16.01894190    19.35238840    13.44186500
O      4.12869070    13.81509880     2.64488460
H      4.19277050    13.01878070     2.11762500
H      3.58708330    14.40590380     2.12158540
O      7.44160700     5.19070960     4.64094830
H      7.22629690     5.89753010     5.24945400
H      7.57590680     5.63015990     3.80125810
O     11.71333500     0.98054100     7.59444900
H     11.43680100     0.10448810     7.86332040
H     12.54579160     1.11818960     8.04644580
O     16.94065860    11.58071420    16.55409430
H     16.20701410    12.19520470    16.57401470
H     16.54726980    10.73145200    16.75467680
O     14.60759450     7.76506850    11.10872940
H     13.65359590     7.81554080    11.16847610
H     14.82234480     6.89226100    11.43785290
O      0.68484340    12.17759420    20.58804700
H      0.36537630    11.36056230    20.20512010
H      1.58716270    12.25108620    20.27716060
O      1.73309170     7.74325610     1.59474810
H      2.51368260     7.19353910     1.66346040
H      1.31559290     7.46554900     0.77939210
O      9.66768930     9.01872160     0.18117410
H     10.62017060     8.92402270     0.17458260
H      9.46108630     9.29960820     1.07260550
O     11.81899360     2.37587950     5.07992650
H     11.00337600     2.08823130     4.66973210
H     11.82809830     1.93532590     5.92966840
O      4.13804630    11.45750710     1.10733590
H      4.22468610    10.70525460     0.52181010
H      3.19808320    11.52273270     1.27599700
O     11.80742740    12.61363700     0.49403330
H     12.35343070    12.77987770     1.26245840
H     11.39129920    11.77056600     0.67375050
O     12.66078470     5.52273320    18.63722990
H     12.72798920     5.07580800    17.79344560
H     11.72419360     5.68663450    18.74752620
O      1.79402010    12.53054520     6.26241210
H      2.51718000    13.01640610     6.65890880
H      2.20495390    11.74954320     5.89173510
O      4.62898540    14.24933340    21.52368740
H      3.79946370    14.65625860    21.77376170
H      4.40430360    13.68035980    20.78746990
O     10.28637790    21.28838350    13.76714230
H     10.67933650    22.13725470    13.97020340
H     10.54273510    20.72497750    14.49726960
O     17.38808250     9.85728840    19.57014080
H     17.44340520     9.25099750    18.83150480
H     16.47567370    10.14663410    19.57468410
O      7.84031340    18.35544590    17.20527080
H      8.59206490    18.92092900    17.02826880
H      7.94361540    18.09958840    18.12183950
O     13.84432220    19.34059520    20.69995120
H     14.30955310    20.00014880    21.21452140
H     13.16794200    19.00923350    21.29066470
O      4.30293750    15.39068890    17.86292840
H      5.06456040    15.33811090    18.44033430
H      4.28522780    14.54635520    17.41235160
O     12.69526960    10.65800380    19.41300580
H     12.33300110    10.23241330    18.63591770
H     12.02293300    11.28583810    19.67761990
O      1.92565880     1.04798630    12.02247240
H      2.46981310     0.26103620    12.05141930
H      2.54003050     1.75717190    11.83316990
O     13.46817020     8.42235180    13.82600400
H     13.06979850     8.61346440    12.97688200
H     12.72780990     8.36155320    14.42966180
O      7.17013260    19.62492750    13.08193210
H      7.01120520    20.36474990    13.66813950
H      6.39687820    19.06967540    13.18195720
O     12.09260080     5.08663030     7.62919520
H     11.30370810     4.88469650     7.12610150
H     12.60661030     5.65148590     7.05216500
O      1.89157710     6.76528500     7.74743940
H      1.33881270     7.36108450     8.25311370
H      1.58402470     5.89125490     7.98767660
O      3.90780780    19.79789920    14.71028420
H      4.14584210    19.37858770    15.53717710
H      2.95070700    19.81082730    14.71510220
O     17.07712750    18.30719380    10.60009290
H     16.96312900    17.92877960    11.47189620
H     16.98464580    19.25039670    10.73443220
O      7.89775800     5.12317230    18.76995090
H      7.59586430     5.39683390    19.63609310
H      7.31903650     5.57970480    18.15930370
O      0.01889480     4.13020470    16.17693520
H     -0.03415740     4.70651200    15.41451360
H      0.06544390     3.24828740    15.80776500
O      7.12386320     3.54688950    12.75232600
H      6.18452550     3.59668370    12.57513140
H      7.18721820     3.53644200    13.70736980
O     11.06527420     4.11835340    15.73292640
H     11.01589680     5.06444030    15.59613320
H     11.80446430     3.83667870    15.19395540
O     14.24378010     3.12457390     5.97199920
H     14.89376740     3.36628940     5.31220960
H     13.40971950     3.41803100     5.60531380
O     16.24851610    13.17089750    21.63123510
H     17.02901080    12.96393680    21.11720470
H     16.56791310    13.25081540    22.53002930
O     16.49392130    21.31455040     8.36896510
H     16.62563900    20.52179340     7.84894750
H     16.19351010    20.99559020     9.21999360
O     17.43475340    17.80714040    17.72013280
H     17.93929860    17.06237790    18.04723360
H     17.96615980    18.16195870    17.00743100
O     17.56401630    14.03002830     8.72308540
H     18.20423700    14.51866630     8.20580200
H     17.01783940    14.70427230     9.12721350
O     13.29325870    20.73049160    12.26964660
H     13.23711970    19.77755550    12.19897460
H     12.38433650    21.01830290    12.35483260
O     14.45236400     1.00572510     3.11372660
H     14.88695430     1.74702330     2.69201610
H     14.79174140     0.23686050     2.65557620
O      8.47349070     5.31271980    21.66577720
H      9.39188390     5.04995390    21.72693250
H      8.49117950     6.26620440    21.74815370
O     10.66666510    16.80182080     4.60150480
H      9.74009420    17.02411650     4.51049180
H     10.76610850    15.98486520     4.11270280
O      3.75687340     6.11567160     0.90546640
H      4.19510130     5.45372060     0.37066810
H      3.97161720     5.87588260     1.80691990
O     12.52527140     2.31085130    14.06257920
H     13.47925660     2.38204690    14.09536460
H     12.31153010     1.65096780    14.72219940
O     15.80181220    15.93647000     9.60849000
H     14.98156930    15.61660770     9.98414800
H     15.87064840    16.83975790     9.91762450
O      3.46573140    16.88306050     6.77014540
H      3.64063570    17.79804420     6.55003880
H      4.32889840    16.46940420     6.77806660
O      9.63171200     6.70080140     8.63183590
H     10.51787190     6.46759840     8.35512730
H      9.14295200     5.87897440     8.58771990
O     13.29255100     3.74807380     9.97220800
H     12.63287450     4.24306150     9.48636250
H     13.49318310     3.00009560     9.40961740
O     13.31301120    16.31502720     7.47304630
H     12.56842710    15.72675800     7.59861470
H     13.53742220    16.60914610     8.35586360
O     12.70211890     4.33003570     3.25688080
H     11.88114640     4.69320440     2.92470120
H     12.43617630     3.56728010     3.77040820
O     16.69002720     9.10618400     2.19976810
H     17.34343530     9.65928940     1.77155940
H     17.20300670     8.44119260     2.65897420
O      1.60897060    15.88882920    17.34843060
H      1.38208280    14.99265960    17.59669300
H      2.55252430    15.94733520    17.49848370
O     15.83808800    20.64821240    11.08975700
H     14.90079120    20.75927730    11.24903300
H     16.25536540    21.30346870    11.64900110
O      3.01263240    21.23316190    17.57365420
H      3.45855280    21.59288980    16.80685230
H      3.70344260    21.13689040    18.22920230
O      2.86339120     2.96227570    19.88072400
H      2.19270130     2.86235360    19.20513340
H      2.48373650     2.55185910    20.65767480
O     16.17051320     0.40094020    16.00117110
H     16.13430600    -0.24434450    15.29510590
H     15.76198290    -0.03753110    16.74754710
O      4.23090790     5.18425610     9.44264700
H      3.58455800     5.13407560    10.14688110
H      3.97054820     5.95139650     8.93280410
O      5.25171090    19.36909100     6.80790900
H      5.76826190    19.28521920     6.00642820
H      5.79628560    19.89968680     7.38940620
O      1.52546020    10.34770870     2.12239380
H      1.54955780     9.46417430     1.75494800
H      1.85302290    10.24454590     3.01586580
O      3.75152590    21.07411960     5.30413680
H      4.36960460    20.53318210     5.79566140
H      3.14291360    20.44726180     4.91314700
O      2.30808970    11.68299010    11.99811840
H      2.98462610    12.35983750    11.97793200
H      2.09576920    11.58417420    12.92622760
O      6.96116690    11.78020000    20.93931960
H      6.15442470    11.57773490    21.41303630
H      6.80284260    11.46304040    20.05017660
O      2.36202500     4.37792250     5.76074170
H      2.31979540     3.42380550     5.82485340
H      1.56738340     4.68280840     6.19871520
O      8.98244760     7.04389720    12.36635400
H      9.02107050     6.09718660    12.23041440
H      8.69352250     7.14403200    13.27339650
O     14.06065370     6.43654580     5.86890890
H     14.40303420     5.97813560     5.10153150
H     14.76149560     7.03768870     6.12125640
O     14.98455050     2.64151600    14.64549160
H     15.69710450     2.14411570    15.04685310
H     15.41336730     3.18011880    13.98046880
O     15.71344180    18.51154710     6.06297400
H     16.50563430    18.13047980     6.44172570
H     15.12318610    17.76750950     5.94365220
O      4.86677690    18.02871700    12.54036810
H      5.28071590    17.18108560    12.37786960
H      4.01037980    17.96193310    12.11804680
O      0.55949580    17.18768690    15.09246160
H      0.94703780    18.03920560    15.29484080
H      0.81607670    16.62756540    15.82503220
O      0.48731210    12.68624590     0.87069310
H      0.82451390    11.87745760     1.25590650
H      0.83611650    12.69058320    -0.02068140
O     11.89440630    21.22521590     3.84261320
H     12.67698960    21.77339360     3.78518680
H     11.24622340    21.77806280     4.27901980
O      3.93806360    13.99952980     7.39486600
H      3.59547900    14.60760020     8.04993720
H      4.83407260    14.29711250     7.23724460
O      1.60913260     1.17706270    15.21330740
H      1.57991150     0.81769010    14.32661250
H      2.40933560     1.70197130    15.23275090
O      2.46350220    18.74515340     3.40479560
H      1.61158220    18.39451790     3.66463990
H      2.28949260    19.21914860     2.59160420
O     10.20869260     2.92947980    -0.01112700
H     10.86329840     3.61163540    -0.16074680
H     10.55007740     2.42823050     0.72943870
O      2.42708470    17.94887730     0.12939750
H      2.58575460    18.77608110     0.58413900
H      1.50782080    17.99273300    -0.13378110
O      6.34959750    13.50654320    16.50924870
H      6.64752050    14.18313880    15.90122700
H      7.06254340    13.42278000    17.14243510
O     10.12102410     6.58192210    18.92758940
H      9.76930330     7.12466190    19.63325120
H      9.40069580     5.99644520    18.69397350
O      0.30940190    11.65251450    10.09135720
H      0.39689100    12.40451910     9.50563810
H      1.13349220    11.63065430    10.57780270
O      9.53347490    19.72141460    20.83376690
H      9.89612100    19.81519890    21.71463390
H      9.84860610    20.49217990    20.36170200
O     18.08172230     4.68801830     8.00335310
H     18.11531260     3.74096420     7.86847210
H     17.14777180     4.89765500     7.99854370
O      1.04151920     8.18501570    21.19184490
H      0.19440140     8.61340240    21.06893160
H      1.39605900     8.09707450    20.30708500
O      7.65382770     6.05092290     1.84792270
H      7.43064500     6.94837620     2.09490440
H      7.15887260     5.89365910     1.04385820
O     14.09859560     5.86631630    15.08642290
H     15.03749180     5.90180160    14.90354060
H     13.74545290     6.65807200    14.68065930
O     13.25677970     2.35234280     0.16525590
H     14.03751950     1.90319560     0.48920580
H     12.53778930     1.74944570     0.35446470
O     16.17400170     8.31495670     6.50444840
H     16.25023080     9.26025870     6.63416000
H     16.42858510     7.93643240     7.34595680
O     10.92583370     8.64857770     4.60484030
H     11.30661200     8.74532410     5.47769740
H     10.01712890     8.39502620     4.76670460
O     17.05917740     0.95951820    12.47700980
H     16.85040470     1.81785320    12.84566400
H     18.00533870     0.87269760    12.59308720
O      2.01506260    20.21215630     0.99466170
H      2.04704050    20.38284300     0.05334580
H      1.88612590    21.07424160     1.39015500
O      2.81980940    14.90053080    10.11206150
H      3.28020360    14.15038970    10.48830130
H      2.60987420    15.45443060    10.86396220
O      9.19941330    15.42522910    21.31274990
H      9.70408440    15.27196980    22.11153030
H      8.28571410    15.36061760    21.59061810
O     15.53102870     8.80784990    15.69425110
H     16.33742520     8.78938670    15.17887020
H     14.83123300     8.85106180    15.04259780
O      0.99176350    19.91818240    16.11604500
H      0.06475840    20.09428020    15.95516300
H      1.36221180    20.77170180    16.34078030
O     11.90703200    18.39800640    12.40005680
H     11.36485100    18.38006970    11.61141870
H     11.28230860    18.50117490    13.11790660
O      2.70720740    18.97367100    10.22875020
H      2.56407670    18.84535030     9.29105190
H      1.92860880    18.60163310    10.64300160
O      3.22358730    12.85323430    19.62511830
H      3.43087290    11.96106620    19.34708600
H      2.80532740    13.25099280    18.86152270
O      4.23198750     5.92643210     3.52656510
H      4.86540030     6.21228550     4.18482590
H      3.78861520     5.17973470     3.92917630
O      2.30462810     1.43424580     6.26546290
H      2.70506640     0.60274960     6.01150320
H      1.36966980     1.23976350     6.33074430
O      5.36176440    17.62009810     9.59086230
H      4.46075300    17.49071500     9.88695430
H      5.27571110    18.07882310     8.75516130
O      2.10692310     7.54046960    18.66824530
H      2.06301550     6.67963930    18.25198170
H      1.34178350     8.00788120    18.33310510
O     13.11013130    17.78662870    18.67175100
H     12.16811470    17.69756890    18.81633380
H     13.39990040    18.39683150    19.34992410
O     13.47308540    12.72272010     2.60903760
H     14.04602810    13.39110660     2.98484040
H     14.01328180    11.93305680     2.57986880
O     11.29670330    18.89114760     7.46605010
H     12.13123130    19.34505650     7.34873960
H     10.65947250    19.43928720     7.00810620
O     16.57132530     1.75169920    20.38839720
H     16.24694060     2.57364580    20.75638010
H     17.24252320     2.01881620    19.76040650
O     14.28536130     5.04784730    12.12081810
H     14.15591140     4.47884700    11.36206050
H     14.15870380     4.47302200    12.87564660
O      6.60337780    19.81077580     4.33587880
H      6.61242440    20.70967480     4.00704480
H      6.69844770    19.26836200     3.55294850
O      0.18233930    17.99535750     8.06011490
H     -0.10164100    17.87421420     8.96615700
H      0.43882430    17.11984830     7.77040770
O     12.83862020    15.27624230    15.32992460
H     11.94734190    14.99677750    15.12074760
H     12.72580240    15.97026540    15.97941300
O      5.16613860     1.81289320    21.56867410
H      5.37526370     1.62434740    20.65382390
H      4.24522500     2.07359150    21.55503460
O      6.58965590    15.18872740    19.64932250
H      6.90019510    16.09156610    19.71774290
H      6.03010080    15.06910610    20.41666790
O     15.84996510    20.61987110    18.25458340
H     15.83834740    19.70011140    17.98974230
H     16.60154910    20.69016270    18.84315110
O     15.96243190    20.52647400     1.88570130
H     15.87384700    20.65729330     0.94162950
H     15.26742650    19.90693860     2.10790940
O      0.38716050     4.24001840    19.21511460
H     -0.42891440     4.62877990    18.90028380
H      0.92486210     4.14258910    18.42922970
O     15.08277230     9.93158050    18.18051720
H     14.16958430     9.95729350    18.46627620
H     15.12241460     9.19439030    17.57124520
O      8.66427900     4.44048170    10.81254770
H      9.39308260     3.83441570    10.67927460
H      8.07003400     3.97478030    11.40095810
O     14.26139930    10.06838320    21.94536590
H     14.06447700    10.31662460    21.04213330
H     15.15210440    10.38657090    22.09244730
O      3.16630740     9.99577430     4.65220020
H      2.44315530     9.54069710     5.08369450
H      3.95146130     9.54109670     4.95721290
O     10.80079650    15.25334640     1.12632190
H     11.12256050    15.35801410     2.02172370
H     11.22080040    14.45231720     0.81298600
O      9.76997660     3.00286790    17.51931000
H      9.23316760     3.74689030    17.79225160
H     10.34498210     3.35821940    16.84157370
O      8.13412480    13.48603530    18.53428650
H      7.57950590    14.11596580    18.99452210
H      8.94472120    13.46417710    19.04290010
O     13.13968470    17.88148310     5.08944180
H     13.00654700    17.58815380     5.99080940
H     12.27117920    17.83063130     4.69026180
O     16.85246090    17.07283210    13.04064270
H     17.32538220    17.16642950    13.86757470
H     15.94206520    16.93106650    13.30009940
O      1.24752570    20.06586070     6.25270130
H      0.75605450    20.00871470     5.43329760
H      0.75512210    19.52017400     6.86588670
O     17.54962160     5.82015470    14.12229540
H     17.64054680     6.70648340    14.47213270
H     17.46479230     5.94336270    13.17685600
O     14.20972730     1.66016320     8.31999970
H     14.21068570     2.18790080     7.52142430
H     14.91755870     1.02889130     8.19076160
O      5.50183440    -0.06273910    16.31098940
H      5.55284930    -0.10002780    15.35587790
H      6.28090290     0.42754050    16.57349590
O      9.33626170     9.00776670    10.13982580
H      8.71155740     8.51844980    10.67512510
H      9.57688240     8.40212540     9.43873210
O      6.87838270     1.78097130     5.16853570
H      7.21555520     2.59579590     4.79623650
H      6.77462960     1.96876550     6.10138130
O     12.73918340    19.87597850    16.13612170
H     13.39528750    20.57293130    16.13200570
H     13.12697700    19.18514060    16.67333030
O     13.93117520     2.63792250    17.20722960
H     14.32801720     2.33213070    16.39160730
H     14.14118000     3.57120540    17.24058910
O     16.21568300     2.39113160     1.49591360
H     16.75916480     1.60496500     1.54884640
H     16.53933530     2.85447810     0.72339140
O      5.08215620     0.62710310     3.49787430
H      5.72928430     1.00111700     4.09584670
H      4.45608140     0.18303420     4.06976990
O      3.20806500    14.86866860    13.89017390
H      3.92577170    15.25636200    14.39099690
H      3.61214780    14.14210610    13.41577530
O      5.99865480    15.94641110     6.82919410
H      6.09577660    15.77850820     5.89185290
H      6.86982770    16.22163770     7.11474510
O      6.70762440    14.42253970     1.11625780
H      6.30922170    14.47589970     1.98496930
H      6.13475610    13.83301450     0.62583480
O      8.77591420     7.96024850     5.95639660
H      7.88086750     8.29852010     5.93005280
H      8.91352650     7.71793790     6.87213710
O     17.69783400     3.95886450    22.09979440
H     17.62825010     4.87748860    22.35964200
H     17.88557820     3.98888130    21.16166690
O      1.08071260     8.75593470     5.83952710
H      0.47276770     9.26581950     6.37492660
H      1.52813900     8.18447210     6.46360350
O      4.56760640     3.71964670    12.33080670
H      4.31589510     3.46723870    13.21915530
H      3.80051950     4.17599730    11.98504260
O      4.63988590    11.58692840    16.74388890
H      5.14270260    10.77313140    16.71011350
H      5.29800990    12.27826020    16.67202190
O      1.00624760    13.31869980    17.79602050
H      0.38647480    13.44536500    18.51440050
H      0.57273550    12.69575980    17.21271510
O     14.76116090     7.05015330     1.06841620
H     14.57718660     7.89874510     0.66557920
H     14.49008660     7.15420290     1.98051490
O      6.78322700     6.21443510    10.09982780
H      7.50674630     5.64910360    10.37029460
H      6.07360410     5.60901880     9.88502980
O     12.24398990     8.12766080     0.65191830
H     12.85766510     8.81882100     0.40305340
H     12.46350860     7.92878960     1.56213440
O     15.25811770     4.52477410     3.98458000
H     14.39142320     4.35786870     3.61415240
H     15.85280510     4.47063210     3.23648450
O      0.69442020    14.42280290     2.74946740
H      0.58705270    13.73254490     2.09506010
H      0.42097840    14.01736160     3.57231570
O      5.75870230     8.14957620    19.99202730
H      5.20662640     8.55662160    20.65967940
H      5.58009340     7.21261070    20.07219120
O     16.84016990     3.48423790    12.80778220
H     17.29704090     3.64250490    11.98167510
H     17.07870670     4.22889570    13.35988520
O     11.48168090    14.18187240     3.77611830
H     12.33865640    13.85470490     3.50264790
H     11.41967110    13.94641020     4.70183090
O      2.53659270     5.41823630    17.05972860
H      3.39509610     5.41017580    16.63648030
H      1.91370430     5.49089860    16.33656690
O     14.91433430    14.29595280    19.36860470
H     15.27605720    15.14756300    19.61385730
H     15.39684580    13.66721820    19.90536120
O      0.60778600     2.75597690    10.36630630
H      0.37650220     2.55225210     9.46008590
H      0.58507060     1.91080780    10.81508830
O     17.46346860     6.97454600     4.05422400
H     16.98666760     6.85676910     4.87582110
H     18.17559050     7.57502790     4.27453040
O     15.33727170     5.28659960     8.47789190
H     14.87632750     4.79947710     9.16088100
H     14.67572400     5.43623880     7.80247120
O      6.33852620    15.59475800    11.67702870
H      6.39079430    16.09322170    10.86153220
H      7.01699970    15.97571660    12.23450090
O     17.87098880    17.55752940    21.54755210
H     16.92450140    17.41680530    21.52321240
H     18.24606130    16.69306950    21.37944600
O     15.28696250    16.87970920    21.40486910
H     14.95740410    17.75524710    21.20224380
H     14.58166500    16.46791270    21.90407940
O     13.86953540    18.96117780     2.18203830
H     13.43494220    19.20323940     2.99982020
H     13.23377900    19.17726710     1.49987210
O      1.06884840    13.31926630    14.27103230
H      1.58347050    14.10843560    14.10189530
H      0.28960150    13.41973210    13.72430320
O     -0.14976490    19.88392070    20.10813710
H     -0.11624930    18.98707200    20.44095800
H      0.76773510    20.14689060    20.03552630
O     17.67031670     1.84788250     7.80381110
H     17.37620350     1.00833870     8.15721800
H     17.51086810     1.78052640     6.86239150
O     15.10385130    16.26608090     1.76163880
H     14.59314250    17.04922490     1.96680650
H     14.47505950    15.66979790     1.35506780
O      7.58141660    17.80369190    19.98181530
H      8.26315880    18.37631230    20.33333400
H      6.84428600    17.91201590    20.58276180
O     15.63210200    14.99666500     6.37871270
H     14.88929840    15.47242260     6.75037000
H     16.12743000    14.69367120     7.13968470
O      2.43408660    15.31836610     0.49991440
H      1.71493230    15.12921430     1.10263410
H      2.52879410    16.27035330     0.53130300
O      3.87825390    20.69830890    12.03332330
H      4.19989820    20.31424330    12.84896470
H      3.39637710    19.98886870    11.60821060
O      2.44875450    21.23156170    20.75976370
H      2.34280350    22.15990260    20.96758080
H      2.87580870    21.22510720    19.90313340
O      8.09853460     3.35790850     2.45638680
H      8.40456390     3.71153000     1.62120430
H      7.60816290     4.07657380     2.85549450
O      7.23582550     2.93283300     7.68172360
H      7.66883040     2.14861420     8.01897720
H      6.33088060     2.85547090     7.98391820
O     11.60426520     0.92797110    16.23935510
H     11.35102650     1.82945800    16.43791010
H     12.08745000     0.63889670    17.01343540
O     10.58593370    18.23133470    14.75248430
H     11.18304250    17.70906830    15.28814410
H      9.98533060    18.62971120    15.38240720
O     10.19322680    14.55993750    14.66932580
H     10.22532370    13.61213780    14.79923920
H      9.65694050    14.88291450    15.39342210
O     10.83685400    15.51239590    12.14914890
H     10.65420720    15.54865930    13.08806130
H     10.76069160    16.42012020    11.85509780
O     10.94386390    16.53743740    17.11028100
H     10.40124320    17.16813660    17.58358190
H     11.08371540    15.82561680    17.73476980
O     10.66908840     5.65284400     2.26752210
H     10.76288410     5.90975900     1.35022770
H      9.72983550     5.71869900     2.43985770
O      1.34762320    15.26693060     7.10215190
H      2.06296970    15.84586620     6.83881660
H      1.42980370    14.50718780     6.52572250
O      5.08954430    18.11230660    20.93518070
H      4.17127510    17.92484470    21.12978740
H      5.06110860    18.66057780    20.15107350
O      8.73769470     0.84356520     8.27234360
H      8.77522280     0.78888390     9.22724340
H      9.64857010     0.96245650     8.00326540
O      5.39699890     3.29487820    17.71673770
H      4.86165620     3.66707440    18.41753010
H      5.58532000     2.40252800    18.00738720
O      0.26410680     8.72359090    14.31828690
H     -0.13287670     9.14407540    13.55550960
H      1.03655350     9.25538830    14.50998690
O      1.96846140     1.92153860    22.12493130
H      1.37637010     2.67360420    22.11738780
H      1.94347320     1.60608650    23.02831270
O     10.31331060    18.26087570    10.12764640
H     10.62619780    18.47301290     9.24825290
H      9.38007160    18.47274210    10.10741230
O      6.31915810     0.87341860    19.26725010
H      6.79412510     0.84902260    18.43656160
H      6.92953250     1.28325770    19.88019940
O     10.33062840    17.20374110    19.66834260
H      9.97065930    16.47739790    20.17733960
H     10.12530800    17.98305700    20.18481250
O      5.07824370     8.55747890     5.96824410
H      4.82884690     7.66094350     5.74406240
H      5.56884480     8.47230630     6.78573320
O     17.01019480    13.81203170    12.28442480
H     17.54570390    13.21461770    11.76235290
H     16.68860630    14.45753770    11.65503310
O      2.19392300     4.80832050    11.32853790
H      1.66447170     5.29843660    11.95758530
H      1.57817860     4.20006130    10.91974640
O     17.16448400    19.95835300     4.17480800
H     16.72051620    19.18828390     4.52993870
H     16.80420680    20.05736730     3.29354290
O     12.84262370     7.23884150     3.26499750
H     12.95645240     6.28844120     3.26892520
H     12.08239750     7.39133410     3.82627630
O      8.71248910    10.19953630     2.34856300
H      9.46148590    10.47729400     2.87590220
H      8.48386190    10.97204110     1.83165110
O      4.38806680     5.90954350    19.92359350
H      3.75880430     6.57621810    19.64826390
H      3.91629310     5.08190200    19.83047680
O      4.61974620     5.78526350     6.51393130
H      3.78407960     5.40890740     6.23779920
H      4.90037300     5.23488190     7.24506760
O      4.54882290     2.67455120     8.35615540
H      3.70150180     2.26722170     8.17626090
H      4.33019400     3.54364230     8.69247910
O     15.59812740    11.74708840    13.67625240
H     15.68549820    12.65753460    13.39396760
H     15.88318160    11.75123500    14.59001350
O      7.71336840    18.61723710    10.34415630
H      6.85511160    18.23453710    10.16204170
H      7.60916330    19.04570010    11.19374080
O     16.97937970     5.62983940     1.72718370
H     17.16581920     6.15320440     2.50664590
H     16.25992390     6.09073020     1.29567990
O     10.32533170    19.10437770     1.49803530
H     10.05449490    18.77610780     2.35542560
H      9.95426080    19.98546030     1.45076640
O      5.94178300     4.11454440    22.61353300
H      6.02282860     3.20044160    22.34135440
H      6.61726240     4.57382350    22.11451150
O      9.22561070    20.81384660     5.71177530
H      9.65106580    20.45586970     4.93262670
H      8.31375890    20.53236960     5.63742640
O     11.68257520    14.31051350    18.88509370
H     12.62580870    14.40053080    19.02088930
H     11.43735500    13.54629610    19.40669820
O      6.11303420     9.12158580    17.49920080
H      6.05476520     8.78417300    18.39306450
H      6.62012290     8.46148010    17.02659990
O     15.42834000     6.28018430    19.19341850
H     14.53814410     6.04764510    18.92939760
H     15.39706900     6.29981660    20.14990620
O     15.54551980    21.34730910    21.51595310
H     16.19965740    20.78211980    21.10498430
H     15.80251030    22.23407940    21.26331710
O     11.75141050     8.32589050    11.65464500
H     11.41360470     8.91535470    10.98036670
H     11.09800620     7.62879990    11.71259400
O      8.56261830    12.38791940     0.57744350
H      8.25686360    13.22644900     0.92329510
H      7.98011830    12.20630550    -0.16008010
O      4.75810240    17.53846550     2.34879280
H      4.24848270    17.28440480     1.57939490
H      4.14354850    18.03381920     2.89025450
O     17.44800570     1.63282610     5.16478490
H     17.84837910     1.99417140     4.37398620
H     17.32780270     0.70355870     4.96922060
O     10.31053920     0.03324580    19.11839100
H     11.21420670     0.34643580    19.15748790
H      9.77905850     0.81812640    19.25151820
TV       17.85500000     0.00000000     0.00000000
TV        0.00000000    21.72700000     0.00000000
TV        0.00000000     0.00000000    22.45700000

