SCC=(THIRDFULL=TRUE DAMPXH=TRUE ALMIX=0.3)
DC=(SUBTYPE=AUTO DELTARXYZ=3.0 BUFRAD=6.0)
MD=(NSTEP=100000 DELTAT=5.0D-16)
MD=(NVT=TRUE NVTTYPE=5 BATHTEMP=313.15)
MD=(COLLISIONFREQ=0.01)
MD=(INITTEMP=313.15 ERRORTEMP=1000)
MD=(LIMULLIKEN=TRUE LIDEGREE=10 LIMINDEG=TRUE)
MD=(PRINT=1 SEEDTYPE=2)
MISC=(PRINTLAPTIME=TRUE)
MISC=(WRITECHRGFILE=FALSE)
PBC=TRUE

DC-DFTB3/3ob, PBC (NVT)

4
H   1 -0.1857
  H-H.skf H-O.skf H-C.skf H-N.skf 
O   2 -0.1575
  O-H.skf O-O.skf O-C.skf O-N.skf
C   2 -0.1492
  C-H.skf C-O.skf C-C.skf C-N.skf
N   2 -0.1535
   N-H.skf N-O.skf N-C.skf N-N.skf

 1310  0  1
C          12.03146553    12.45502758    12.05100346
C          11.53229332    11.91615677    10.71377563
O          12.11305046    10.60706520    10.55958271
N          11.44756413    11.50465584    13.16033459
H          11.78710556    13.49461842    12.27469730
H          13.11870861    12.43592644    11.96135521
H          11.75043201    12.60320473     9.88699150
H          10.43857574    11.86347294    10.77855778
H          12.96370888    10.71409988    10.10058498
H          11.51194191    10.50732803    12.91115093
H          12.03510952    11.39877319    13.99967098
H          10.52359962    11.71532822    13.56382942
O           3.55946898     2.88912344     2.45028496
H           3.83636832     3.09169531     1.55668366
O          12.86581802    18.35786438     8.80258560
H          13.38790989    19.11143112     8.52729225
H          13.21320534    18.12776566     9.66433334
O          18.69565392     9.93553162     0.72027218
H          19.13491821     9.13741398     1.01402104
H          18.76503181    10.53456116     1.46363080
O           8.41283989    14.69148827     2.57322502
H           8.59194374    14.96723938     3.47217751
H           8.26889610    13.74729156     2.63650322
O          20.17869949    23.13917160     2.58582878
H          19.64612961    22.36050415     2.74792862
H          21.02444458    22.79528809     2.29827023
O           1.38395560    21.14595985    20.55283165
H           2.07363105    21.46050835    21.13732910
H           1.36772406    21.78183937    19.83755112
O          22.85973930    19.50677681     2.96174431
H          23.48258591    20.16355324     3.27309036
H          22.13436699    19.55025291     3.58478546
O           2.88843131     0.91820133     4.98117828
H           2.53602767     1.71509731     5.37741089
H           2.13629127     0.32959810     4.91742325
O          15.83785057    17.08515549     7.64879799
H          16.67646599    17.13580894     7.19011497
H          15.87182617    17.79575157     8.28921318
O           6.48577261     2.49426460    18.93362808
H           6.54486227     1.53904617    18.91634941
H           5.54600477     2.67606020    18.93799019
O           3.41029525    17.59714699    22.97700119
H           3.86713576    16.90709305    23.45799255
H           2.57950950    17.70251846    23.44060326
O           9.92181396    18.10708618    13.05675411
H          10.27090549    17.40402412    13.60454082
H           9.02860451    17.83033752    12.85225773
O           6.26726103     9.32010937    18.88868904
H           6.45802259     9.13329983    19.80789566
H           7.00759077     8.94741631    18.40989685
O          14.40235043    19.09658051    14.91987514
H          14.00248051    19.30214691    14.07484341
H          13.77448177    19.41863251    15.56663227
O           0.86115426     0.22509398    23.35775948
H           1.56900465    -0.36488947    23.09872627
H           1.05574477     0.44740716    24.26822281
O           8.01241112     4.15299702    17.39975929
H           8.90035820     3.80654573    17.31170273
H           7.56149626     3.51770067    17.95591354
O          13.85353947    22.92684555    23.45712852
H          14.69161034    22.46440887    23.45252800
H          14.04717159    23.77745056    23.06316376
O          20.58675575    19.95344162     4.50812721
H          20.49788857    19.05027580     4.81247330
H          19.77869606    20.12368584     4.02409554
O           8.34063339    15.69738960     5.25519180
H           8.28499794    14.79277992     5.56311798
H           9.27104950    15.91405869     5.31527901
O          21.73961067    22.06159782     5.39452362
H          20.96543694    22.56150818     5.65331841
H          21.38846588    21.28130341     4.96549225
O          15.21181774     1.66077173    12.95830822
H          14.34798622     2.07290316    12.94509220
H          15.11086750     0.91173303    13.54565907
O           4.73045111    15.47373390     9.01745033
H           4.55272818    15.29941940     9.94171333
H           4.05019712    16.09415817     8.75561142
O          21.54603386     2.50996923     9.06874657
H          21.89162064     1.81562078     9.62971115
H          21.68495369     2.18934107     8.17760658
O           8.26578331    18.10381889    19.60265541
H           9.07645416    18.33436012    20.05641174
H           8.21883011    17.14986992    19.66596794
O          10.90713596     7.26100779     2.09910488
H          10.80377960     7.46137762     3.02937412
H          11.37859917     6.42809725     2.08444118
O          12.97708321    19.39046860     6.29077530
H          12.90374279    18.57217216     6.78194046
H          13.41204357    19.14205933     5.47509384
O          11.61383247     5.31578493     7.29589272
H          11.27459812     4.42288065     7.23365402
H          11.55582047     5.52967596     8.22708321
O           6.14413023     1.33168614     4.31808472
H           6.64559698     2.09983778     4.04475784
H           5.34149313     1.69153416     4.69559669
O           9.76319122    15.18104935    22.47097969
H           8.85138798    14.90419388    22.38043594
H           9.98169422    14.99112892    23.38335037
O          12.59034538     5.89598989    17.39495277
H          12.46054745     5.93071508    16.44722939
H          13.26552296     5.22909927    17.51995277
O          16.12384415    11.72245693     7.92387962
H          16.13805199    12.65482330     8.14003754
H          15.35192108    11.38327789     8.37700653
O           9.12371254     9.29113293    18.82153702
H           8.78049088     9.00525284    19.66811943
H          10.05298805     9.06346703    18.85059738
O          20.15078545     2.02594423     4.02690315
H          20.94238472     2.35659695     4.45148659
H          20.47334099     1.44406712     3.33871078
O          10.42839813     3.09927607     3.51731300
H          11.17341805     2.68534040     3.95301247
H          10.81284618     3.82028055     3.01873016
O          19.78014946    10.30873775    10.87246895
H          19.12593460    10.36342144    11.56906509
H          19.37450409    10.75235844    10.12756348
O           8.28807449    15.48047447    19.83219147
H           7.88458586    15.01435661    20.56442451
H           9.01834297    14.92187500    19.56591034
O           4.17991781    17.15443802    20.42090797
H           4.01060057    17.49440956    21.29953194
H           3.58434653    16.41024208    20.33316231
O          22.52859306     5.33826876    18.32745171
H          22.85041428     4.69881630    18.96287537
H          22.40046310     4.83395481    17.52403259
O           0.44412869     5.42484951     6.02885246
H           0.92385453     6.03371668     5.46726990
H          -0.08062871     5.98724127     6.59856796
O          10.27923870     0.62888968    19.49567223
H          10.74289227     0.29491368    20.26360321
H           9.78800392    -0.12376723    19.16638756
O           9.72001553     4.35425377    23.30828094
H          10.32346630     3.61403513    23.37274742
H           9.34518337     4.28195143    22.43049812
O           9.14857674    12.02148056    21.88964081
H           8.81166077    12.75052357    22.41042519
H           8.43928719    11.37872219    21.89034462
O          20.50592232     1.02204382    -0.10670174
H          20.49722099     0.79709852     0.82365048
H          20.63467598     0.18570794    -0.55413520
O          18.04600143    18.53234291    17.33678818
H          17.14921188    18.23753166    17.49517441
H          18.38638496    17.92277527    16.68196106
O          12.97038555     2.88927078    15.72395706
H          12.69242859     2.15891695    16.27672768
H          13.08813477     2.50189877    14.85659885
O           1.52545512    10.41826820     4.98693848
H           0.69429559    10.81782532     4.73050117
H           2.19295669    10.98303890     4.59744263
O          12.19664192     5.48204565    14.36954308
H          12.25138378     4.53246450    14.47692299
H          11.37041950     5.62359190    13.90742493
O           2.40982223    17.48860741     1.95402348
H           1.49591410    17.20402336     1.95804703
H           2.80927253    17.02179718     2.68802643
O          19.59461212     4.12655067     7.22384262
H          20.11107063     3.74463606     7.93352127
H          18.72407341     4.25167465     7.60165215
O          18.45280266    20.91993523     2.37785339
H          18.72735596    20.13297844     1.90715897
H          17.72446442    20.62895966     2.92656803
O           6.59392881    10.77520847    21.93007660
H           6.01614714    10.02307320    22.05927467
H           6.42165709    11.05809116    21.03200531
O           9.39940834    18.97866058     0.74197972
H           9.08468246    19.76189995     1.19332802
H           9.57882118    18.35339546     1.44418061
O           4.22859716    21.12444305    18.63493347
H           3.39629149    20.83032417    19.00506020
H           4.77014685    20.33568001    18.60651970
O          -0.10213597    16.28015137     7.20998001
H           0.04847495    17.07476425     6.69798660
H           0.32685536    15.58701897     6.70821571
O           9.25794983    21.61663246     9.41996384
H           9.65087700    21.36017990     8.58565331
H           9.06648636    22.54892921     9.31801033
O          21.18399429    22.03542137    22.60004425
H          21.97235489    21.69901085    22.17395782
H          21.01290894    21.41668892    23.31006622
O           9.74977970     1.76264036    15.27425385
H           9.52424240     1.00854528    15.81896019
H           9.99231529     1.38380826    14.42932987
O          13.27366161    11.82196331     6.56543922
H          13.34569359    11.82983208     7.51989365
H          12.33670044    11.91860199     6.39515305
O           4.65559340     9.76143456    16.89555550
H           4.32086897    10.61567116    17.16845131
H           5.19074011     9.46726990    17.63265610
O           8.27357101     3.63955688     9.35471916
H           8.12809181     3.44617081     8.42861557
H           8.42785454     4.58387995     9.38084793
O          11.44222641    15.71893692    19.71069336
H          10.90734577    14.97029495    19.97464752
H          12.02474499    15.87133217    20.45479012
O          19.83022881     7.65493155     1.94035542
H          19.04608727     7.87926626     2.44138336
H          20.24744415     6.95856524     2.44754124
O          15.18711948     8.86314869     0.94987404
H          15.91715050     9.34495449     1.33865368
H          15.47994709     8.66057777     0.06136524
O           0.59722394    18.80080032    21.44277954
H           1.07346308    18.01663399    21.16981316
H           0.97071999    19.50463295    20.91235352
O          22.52216911    20.84188080    18.21382332
H          23.20287323    21.12782669    17.60463715
H          22.53063583    21.50020981    18.90863609
O          12.11995029    15.41574287    10.83661079
H          12.74823189    14.87388039    10.35924530
H          12.32172775    16.31138420    10.56579018
O          10.26620007    13.32180023    19.79027176
H           9.80961132    12.98126125    20.55955315
H          10.73297310    12.56561375    19.43455315
O           2.81890082     5.53325891    18.82559395
H           3.14274001     5.66813135    19.71619415
H           3.60875297     5.50106001    18.28584290
O           7.59423018    18.14103699     2.94187832
H           7.93787527    18.97750664     2.62809563
H           8.20503616    17.87364388     3.62864494
O           5.28375387     0.30233899     1.94579518
H           5.59695578     0.39966884     2.84505272
H           4.35249472     0.51884472     1.99176419
O           3.75153518    16.14393044     4.28170395
H           4.18515921    15.29314804     4.21560097
H           4.46431303    16.76506615     4.43127632
O          14.16653919     1.90078056    22.34425354
H          13.77326393     2.72159004    22.64062881
H          14.26694679     2.01098251    21.39873505
O           8.12747002     5.33151674    20.38471603
H           7.36509085     4.78393698    20.57224274
H           8.84484482     4.70964336    20.26273537
O          14.06825161    13.74081516     9.47522736
H          15.02369308    13.79566956     9.49406242
H          13.88417244    12.80939579     9.35355186
O           0.62163323    20.26556396    23.57582474
H           1.50700247    20.62497330    23.51944160
H           0.47985810    19.84396744    22.72824669
O           2.46915221    11.57031441     2.22982597
H           2.78085113    11.71089554     1.33578217
H           1.53807700    11.37169933     2.13041782
O          10.77076626    21.17117882     6.73773575
H          10.10678005    20.60281181     6.34746170
H          11.60242653    20.74436378     6.53182411
O          13.24102783     5.77597475     5.24342918
H          12.61554718     5.41969299     5.87435532
H          13.80187988     5.03404808     5.01710701
O          14.30175591    21.00776482     8.19946289
H          13.99283791    20.64681625     7.36848831
H          14.79080772    21.79269791     7.95259857
O          17.54190636     3.32964087    16.60342979
H          17.80036163     3.73334122    15.77490330
H          17.86783028     2.43158722    16.54423332
O          19.66078949    11.42757607     3.03282928
H          20.07449150    10.57761955     3.18335342
H          20.31999779    11.93414974     2.55842304
O          11.83598804     8.31848526    18.25934410
H          12.64813232     8.50531769    18.73024368
H          11.85726547     7.37310934    18.11087418
O          20.17893791    23.08096123    15.56509781
H          20.45302010    23.60662460    16.31662369
H          20.80453110    23.30406761    14.87582970
O           2.58940101     9.95059872    13.20814514
H           2.36714911     9.60652447    12.34301567
H           2.14034057    10.79474449    13.25278187
O          17.71729279     7.31234312    18.93280411
H          17.18476677     6.63225412    19.34526634
H          17.12592506     7.73463869    18.30976295
O          10.47658539    17.21130371     2.67327690
H          10.73564529    16.97890472     3.56496620
H          10.16320992    16.39054489     2.29330063
O           4.27096701    22.96999359     6.82035446
H           3.65721107    22.66274071     7.48753548
H           3.73685813    23.50174713     6.23027229
O          10.99194336     2.06142092    -0.01351536
H          11.16744328     1.41148961    -0.69397247
H          11.02029037     1.56529653     0.80458558
O          16.62194633    16.43185616    12.89619064
H          17.25044060    15.71866035    12.78403759
H          17.05439377    17.04015350    13.49551868
O           1.94233668     1.02773082     8.85159874
H           2.02728248     1.82881343     8.33460617
H           2.26076674     1.26912367     9.72140694
O          15.45357037     4.09839535     5.13654137
H          15.84569931     4.92211771     5.42628098
H          16.19716454     3.56445265     4.85689354
O           5.86100340    18.98842621    19.26169395
H           6.76592207    18.82459831    19.52723694
H           5.33331442    18.62911224    19.97490501
O          13.05235004    18.67585945     2.11893463
H          12.95941448    19.52258873     1.68230355
H          12.15461159    18.36091995     2.22434330
O          17.29689026    23.52313423     9.11604118
H          17.82366371    24.12066650     8.58529282
H          17.78561020    22.70015717     9.10652924
O           9.97306156     9.01423931     7.24692917
H           9.34077835     9.11409855     7.95860291
H          10.15576267     9.90943718     6.96149635
O          17.40272331    20.69022179    16.00856972
H          17.83050346    20.11518669    16.64305496
H          16.68196678    21.08989143    16.49540329
O          14.63679790     2.74279928    19.46116638
H          14.25744629     3.55889797    19.78721619
H          14.15484619     2.56009436    18.65458679
O           7.18011236    14.03319931     8.46060371
H           6.27818441    14.35291481     8.48380089
H           7.69661665    14.74590683     8.83677483
O          15.06308842     8.18588734    22.02925491
H          14.98671532     8.29877090    21.08180809
H          14.18347645     7.93618441    22.31238556
O           8.50163841    12.01340103     2.91212749
H           8.60993576    11.63560963     2.03932953
H           7.69035673    11.62668228     3.24152756
O           0.95993394     7.58381605     4.05938911
H           0.87884110     8.28030109     4.71097374
H           0.16358154     7.65437555     3.53300858
O          17.93659401     0.68263519    16.85293388
H          17.02997971     0.41937533    16.69489861
H          18.44832420     0.16370501    16.23239136
O          19.78087425    13.73512173    20.27763939
H          19.48791122    13.16415310    20.98785019
H          20.07050323    13.13418198    19.59118462
O           3.50897002    12.76251602    17.41212273
H           2.74301887    12.28153324    17.09874725
H           3.41043258    13.63875484    17.03965950
O          12.33948135     0.98404086     1.93145192
H          12.69982243     1.40583384     2.71150112
H          13.03548050     0.39888325     1.63244259
O           2.81063247     2.97644091    16.07876587
H           3.16777205     2.80291700    16.94972801
H           3.02181602     3.89503050    15.91195583
O           5.67583609    17.65208435     4.85160828
H           6.08079481    18.02980232     4.07085991
H           6.26065779    16.93712234     5.10269547
O          16.61282921     1.03818548    20.59872437
H          15.98789883     1.56095636    20.09632492
H          16.36161804     1.17691863    21.51189423
O          19.02888680     9.31683636    16.90230179
H          18.99779892     9.27198219    17.85794640
H          19.54107666    10.10371876    16.71599579
O          20.74804878     9.99933624    20.10716438
H          19.96493149    10.53977776    20.00284767
H          20.41125679     9.12421513    20.29943085
O           0.47623223    13.21308136     7.77211189
H           1.41502535    13.39906311     7.78970528
H           0.36672276    12.60208702     7.04346466
O          10.14334202     5.74240589    12.62182903
H           9.46854305     5.06746960    12.69490051
H           9.80292892     6.35148478    11.96656322
O          16.91741180     6.16847849     5.83137894
H          17.42746735     6.43845320     6.59504700
H          17.57317734     5.89640760     5.18936539
O          17.64207268     1.63761508    23.78185272
H          17.80016327     2.57929754    23.71496773
H          18.37819672     1.23768628    23.31880951
O          10.18377399    14.14599991     8.54999161
H           9.63173294    14.47099876     9.26122856
H          10.78302765    14.86851120     8.36262512
O           2.38383842    11.87943268    22.89020348
H           3.03321242    11.39511395    22.38031769
H           1.64734423    11.27419090    22.97675323
O          18.87884521    11.45345783     8.59889793
H          18.08711815    11.78353500     8.17410469
H          19.50446892    11.33891392     7.88356018
O           1.18242610    11.78770828    16.15296555
H           1.03740942    11.68095207    15.21285725
H           1.34871542    10.90066051    16.47191048
O          23.45337677    10.89963245     1.56278431
H          22.97229767    10.21297550     2.02462482
H          22.77751923    11.39804554     1.10339940
O          20.52168083     3.35160732    13.46417713
H          20.37969398     3.29240370    12.51941967
H          19.82861519     3.93435907    13.77448559
O          23.46459198     7.67406034     0.93297684
H          22.58799362     7.33220625     1.10888493
H          23.32649994     8.36591530     0.28606236
O           3.48599792    21.25164413    11.85066509
H           3.98960280    22.00285721    12.16418266
H           3.58286262    20.59405708    12.53945160
O           4.37437963    17.89429474    11.36893749
H           3.93067718    17.05073166    11.28084183
H           4.14315939    18.19594574    12.24744511
O          18.73264503     9.42181301     6.00546074
H          18.82772827     8.96280670     6.84002876
H          17.78794670     9.53479099     5.90052223
O           0.74026746    15.44954681    10.73418045
H           0.12867038    15.11231232    10.07961464
H           0.35328072    16.27719688    11.01960373
O           7.23834181    17.16609955    14.70136642
H           6.51388884    16.55265236    14.57855988
H           7.08223295    17.85376167    14.05407715
O           9.96555042    -0.21451579     2.54888344
H          10.75023651     0.31957045     2.42538452
H           9.38003635     0.05263176     1.84033787
O          12.23772335    21.31108856     1.08870041
H          11.31097889    21.47515678     0.91417611
H          12.69701862    22.00519943     0.61595356
O           8.02360535    14.45043564    12.03834629
H           8.22624397    15.08135796    11.34761620
H           7.15936995    14.71222115    12.35583401
O           0.38874406    13.72519970    17.98130798
H           0.63154095    13.23125935    17.19816971
H          -0.17477639    13.12948799    18.47507286
O           1.00515425    20.08281708     9.96629906
H           1.30000746    20.94056702     9.66042328
H           1.80629313    19.56286812    10.03002548
O           2.67337966    15.80040359    13.64660263
H           1.74799407    15.62288475    13.81506252
H           2.91137099    16.46485519    14.29320621
O          10.46756268    19.95971680    14.95145512
H          10.51184845    19.47793770    14.12552547
H           9.97400761    19.38580704    15.53734112
O           4.74607611     7.42097712    11.81697750
H           4.71339369     6.46462679    11.79335976
H           4.82506895     7.63504457    12.74658394
O          18.91462326     6.06940126    10.64076424
H          18.23124504     5.98766088    11.30600548
H          19.47736931     5.30783749    10.78064919
O          22.21398544     5.79735470     2.77426338
H          21.75270844     5.06015873     2.37426662
H          23.08650589     5.45602226     2.97030258
O          23.17632103     8.81060982    14.29522705
H          23.25522041     7.93526697    14.67441177
H          22.40172195     8.76008987    13.73516083
O           5.88131475    10.97122574     0.91326821
H           5.88570929    11.16087151    -0.02494610
H           6.10726118    10.04287052     0.97103131
O          22.05194092    14.51709747     9.25682259
H          22.46750641    13.86577606     8.69174004
H          21.35644722    14.89333153     8.71740913
O          12.75007534    19.62028503    16.89245796
H          12.48430347    18.73485756    17.14068222
H          12.02338409    19.94896126    16.36319160
O           5.21128607    13.73676109     4.68000793
H           5.25350332    13.22224903     3.87395287
H           5.97459555    13.45505428     5.18422508
O          22.47285843     3.15349245     5.35459709
H          23.00149727     3.89894056     5.63934517
H          22.94906616     2.79418087     4.60602951
O           4.83005285    20.12806511     9.68172073
H           4.32426023    20.36530685    10.45897293
H           5.07181311    19.21280670     9.82344818
O           4.88384199     7.92748213     1.04915631
H           4.50118780     8.40057850     0.31024754
H           4.20732260     7.30237722     1.30953705
O          23.63127708    15.87159348     2.44641685
H          22.74196053    16.18298149     2.27793217
H          23.85079575    15.34603310     1.67711174
O           5.75106955    18.90372849    16.13831139
H           5.87728834    19.03265953    17.07835197
H           6.45091963    18.30273056    15.88288784
O          20.75983429    15.03934860     0.35686219
H          21.15710258    15.90838814     0.41323292
H          20.12586403    15.01885033     1.07372677
O          13.01302433    15.57795143     7.02375412
H          13.82561970    16.07416153     6.92529106
H          13.27708626    14.77131081     7.46628761
O          21.48452950     6.52335215    10.28409767
H          21.63249016     7.41188860    10.60789108
H          20.53371811     6.41533995    10.30693245
O           8.32939148     8.59586048     4.37442780
H           8.96719933     9.15808582     4.81412697
H           8.78119659     7.75872946     4.26806068
O           1.64000571     6.44013548    23.09500885
H           1.16937983     7.06252718    23.64941978
H           1.09175360     5.65550327    23.09693146
O          11.16306400    10.44295120    21.40643501
H          11.40407944    10.65682030    20.50510025
H          10.56271744    11.14180660    21.66608429
O          10.77336693     1.32412660    10.23134041
H          11.06739807     0.68901622     9.57833672
H          10.01993370     1.75323045     9.82582855
O          17.17058945     4.13972807     8.58471489
H          16.30501366     4.45384407     8.32329559
H          17.01372147     3.64897871     9.39142990
O          21.41405487     7.54700041     5.26807022
H          21.12504005     6.82027292     4.71619225
H          20.68587875     7.69357920     5.87181282
O           8.36408043     0.85370743     8.78251266
H           8.21434784     1.76655757     8.53651237
H           7.49011564     0.50817978     8.96424675
O           5.97440100    11.78249264    13.18212509
H           5.42413092    11.85935688    12.40268612
H           5.59635687    11.05157375    13.67107391
O           3.80716681     6.25463057    21.41084671
H           4.20915556     5.55630732    21.92754936
H           2.99944091     6.46475077    21.87952614
O           8.18908119    10.03633022    13.21155167
H           7.58818388    10.32283306    13.89935303
H           7.99579954    10.61027145    12.47029209
O          16.76920509     9.95147800    15.22062778
H          17.40725708     9.95302677    15.93415356
H          16.25687408    10.74865818    15.35573101
O          10.35252762     6.89905500     5.07590485
H          10.63488102     6.04967070     5.41510201
H          10.31929779     7.46571112     5.84663773
O          21.10364914     2.52015018    21.25322151
H          20.47615623     2.28567457    20.56947517
H          20.58057785     2.56351280    22.05368805
O           7.77630758     1.42653167    21.81455231
H           7.91137838     0.64369214    22.34854507
H           8.12184334     1.19157612    20.95337105
O           4.34583426     5.15807962     3.81169701
H           4.33154631     5.68563318     4.61026764
H           3.98595595     5.73437548     3.13745594
O          21.97670555    21.18364525     8.03003883
H          22.24320030    21.57052994     7.19605255
H          21.84540176    20.25624466     7.83275795
O           0.28829259    18.44412804    16.53122520
H           0.60052937    19.23322105    16.08842659
H           1.01494658    18.18367958    17.09724045
O           8.82972145    20.74815559     2.65464115
H           8.19540787    21.04570580     3.30682182
H           9.57435417    21.34085274     2.75693130
O          21.20950508    17.57120705     8.67492485
H          21.30053139    17.94527054     9.55129433
H          22.10121918    17.33090019     8.42327309
O          15.18211079    12.67455196    15.97635937
H          14.47150421    13.04011822    16.50326538
H          15.95897102    12.76123810    16.52881432
O          21.73923302    10.50651360    16.26789474
H          22.39034653    10.24793816    16.92014122
H          22.05132294    10.11779213    15.45074940
O          12.15656757    10.84186935     3.37611008
H          12.39196014    10.14025879     3.98320580
H          11.88003922    10.38733387     2.58039474
O          21.41538239    15.12362480    17.38859367
H          22.20774460    14.98677635    17.90788651
H          21.53829193    15.98336411    16.98613167
O           8.41055107     2.86607075     6.71479034
H           7.99521780     3.04773426     5.87174416
H           9.10518074     2.24025536     6.50966644
O          22.05447388    13.29424095    11.82723141
H          22.10358238    14.18080139    12.18476582
H          21.66610718    13.40703487    10.95965958
O          22.91110611    12.43920517     4.74468231
H          22.74500847    13.37705803     4.64941216
H          22.04485130    12.05506706     4.87985802
O          19.18195915    23.05844498     5.62909126
H          18.92276192    23.65240097     6.33355141
H          19.50011063    23.63511658     4.93449593
O          12.41766071     9.25367260     0.98641026
H          13.30069160     8.93593311     0.79791844
H          11.95663738     8.48915863     1.33167374
O          22.75081635     5.95795012    14.21046257
H          22.26354790     5.28178263    14.68120480
H          22.12408066     6.30775690    13.57716179
O           8.49238968    19.62103081     6.44422150
H           7.75917387    19.11190796     6.78979301
H           8.09879494    20.44671059     6.16214180
O           6.06606627     4.68364286     1.20029175
H           6.75632620     5.19417334     0.77705300
H           6.10744619     4.94195366     2.12104893
O          23.55484009    20.78400230    12.48713875
H          23.74083519    20.66957092    11.55518150
H          22.90090942    21.48237228    12.51688004
O          11.82654381    22.31981659    14.73123455
H          11.30893230    21.53323364    14.90327358
H          11.56220341    22.59309769    13.85278511
O           7.30805731    22.18121338    23.36205864
H           7.09303427    21.74838066    24.18828773
H           6.46320486    22.46669388    23.01426506
O           1.92790377    22.64773369    18.38154221
H           1.30359900    23.12517357    17.83516693
H           2.75045753    22.68449783    17.89339447
O           5.33125639     1.77091444    15.26999569
H           5.52032042     2.37045383    14.54816532
H           4.65342665     2.21532726    15.77918816
O           7.64213896    20.39163208    11.41765785
H           8.01221657    20.69284630    10.58787251
H           7.51668119    21.19144630    11.92833042
O           1.92616427    20.67203140     3.71686172
H           2.41955352    20.65731812     2.89675045
H           2.40055442    20.07224083     4.29256821
O          11.11311817    15.52659035     4.90757942
H          11.62537575    15.41181374     5.70798492
H          11.20690441    14.69554710     4.44195747
O          12.56995869    15.21825600    22.21745110
H          11.73032475    15.33993340    22.66066933
H          12.86843586    14.35467339    22.50270653
O           4.60254049    -0.25637481    13.54772472
H           3.65400100    -0.20763873    13.66659546
H           4.93943167     0.52438319    13.98721695
O          18.64308167     7.33273268     8.11405945
H          19.36783028     6.89753199     8.56302643
H          18.00210953     7.50391722     8.80404663
O          10.23416042    17.62120819     8.49813080
H          11.17563152    17.57609367     8.33131027
H           9.94556522    18.40560150     8.03157806
O          19.27046967    16.44752312    20.11412621
H          19.64164925    15.58724213    19.91823769
H          19.93482208    17.06862831    19.81563568
O          14.10906601     6.19777536    12.72143841
H          13.33959293     5.99052572    13.25171280
H          14.19523335     7.14891005    12.78586769
O          23.24284935     4.81707001    23.37438583
H          22.46702766     4.39827394    23.74713516
H          22.96896553     5.71775723    23.20123291
O           8.57482147    22.14391136    18.55546570
H           9.38127899    21.65278435    18.71247864
H           8.46634483    22.12858963    17.60455513
O           4.03317213     4.77325678    12.34691048
H           4.53394270     4.27489090    11.70108318
H           3.14390731     4.42529011    12.28088474
O           3.11055350    21.80059624    22.43692780
H           3.45305419    21.19878387    23.09779739
H           3.84681869    22.37758064    22.23386955
O          18.42555237     4.36879063    23.65361214
H          18.30718994     4.78511620    22.79985809
H          17.77240372     4.78536510    24.21583366
O          20.42946815    14.50149918     5.41870689
H          19.50376511    14.48960876     5.66194534
H          20.79518127    13.71818829     5.82969093
O          20.41623688    16.19080544    13.68580341
H          21.06434059    16.13594818    14.38807297
H          20.56528854    17.04895592    13.28882408
O           6.69118261     3.87751007    22.07527924
H           7.11431265     3.06263638    21.80477142
H           6.21255445     3.64608622    22.87126350
O           1.81685412     6.64133406    14.22965050
H           0.94712037     6.24163771    14.22354317
H           1.77471125     7.31696367    13.55290699
O           6.48632002    13.44087601    16.95107651
H           5.71658659    13.94182968    17.22086716
H           7.22175932    14.03692055    17.09281921
O          18.03601837    22.01976013    13.70712948
H          18.58504486    22.73480415    14.02886868
H          17.72381592    21.58242035    14.49927521
O          23.65031052    15.62969017    14.47510529
H          23.15247726    14.90189362    14.84753990
H          23.73481941    16.25515175    15.19474888
O          10.76674557    20.38109207    19.42052269
H          10.77395153    20.18319511    20.35701561
H          11.58949184    20.01801109    19.09266090
O          14.99941349     4.36139584    16.83161926
H          15.80932236     3.85553503    16.89783478
H          14.41713619     3.81346464    16.30535316
O           0.88319176     4.43473577     2.23061657
H           1.31349242     4.85643625     1.48681462
H           1.46204054     3.70831490     2.46187019
O          17.74186897    17.20039177    22.33405685
H          17.65405464    16.45854378    22.93254089
H          18.08450317    16.81738281    21.52650642
O          15.51959705     7.29863214    17.06521797
H          14.96462154     7.84008646    16.50391388
H          15.14152908     6.42157698    17.00142670
O           3.03989959     2.55620575    19.31092072
H           2.61667991     2.19890881    20.09159660
H           3.07208991     3.50009584    19.46669960
O          17.78079414    13.25492191     4.47119904
H          18.38109589    12.62954998     4.06526756
H          17.28811836    12.73593998     5.10693359
O          12.20260811     7.87181997    22.19178772
H          11.37296963     7.55517244    22.54909134
H          12.06224728     8.80866528    22.05448532
O           3.84630942    19.05344772    14.05065155
H           3.08284354    19.36309242    14.53796196
H           4.53382063    18.96859169    14.71122742
O          15.00859356     2.06115007     6.86125946
H          14.32557774     2.35516644     7.46398354
H          15.35011005     2.86742592     6.47458458
O          13.80171013    21.37022018    18.79025459
H          13.62224865    20.79965782    18.04293633
H          13.77430439    20.78708267    19.54882622
O          16.56222916    21.73353386     0.30802262
H          16.98814201    21.40905952     1.10146248
H          17.28441620    21.92461395    -0.29044616
O           9.03749657     6.17584658     9.07333755
H           8.57550812     6.61238718     8.35763359
H           9.75353050     6.77128458     9.29464912
O          14.06387234     3.36997509     9.70582199
H          13.81882381     3.78567982    10.53248596
H          14.30964470     4.09812069     9.13517952
O          13.36721802    19.95735359    12.60670948
H          12.44167519    19.96562958    12.36271477
H          13.72040462    20.76516914    12.23398304
O          19.15366745    12.08672714    22.63318062
H          18.62609100    11.30755615    22.80864334
H          18.77552605    12.76344967    23.19468498
O          14.64524555    11.36109352    18.86309624
H          15.07982922    11.76135731    18.10999680
H          15.00522900    11.82256317    19.62051773
O          13.64614010    14.09921074    17.78850937
H          12.91817284    14.31330681    17.20502090
H          13.73147392    14.86527061    18.35604858
O           5.32303190    20.38891220     7.01273346
H           5.03087950    21.28853416     6.86590576
H           5.58893156    20.37046623     7.93207550
O          11.78714657     2.43662262     7.13066864
H          11.31492233     1.81437480     6.57745552
H          12.02304745     1.93325460     7.90990067
O           1.15882838     9.49700165    21.96556473
H           1.20009482     8.88195038    21.23328018
H           0.24324290     9.77474308    21.99376869
O           2.50775504     6.68064070     2.03644371
H           1.95148814     6.67955637     2.81541634
H           1.92183077     6.93648386     1.32407677
O           6.51841307    11.06018925     5.76071167
H           5.97770262    10.92622566     4.98230362
H           5.90865278    10.97440910     6.49355888
O           4.06874228     6.49667215     6.15360832
H           3.74151015     6.00038576     6.90384102
H           3.52254081     7.28236723     6.12952805
O          14.92406654     5.47147608     7.91969681
H          14.51645279     5.94100046     8.64745331
H          14.75529671     6.02193213     7.15500832
O           0.53835267     8.17249012     7.83201408
H           1.36412871     8.32611465     7.37296486
H           0.73502225     7.46799803     8.44946289
O          10.97125149    19.76125526    11.26182747
H          10.86618137    19.61509705    10.32170582
H          10.39987373    19.11114120    11.67061996
O           4.50846624     8.99232578    21.98482132
H           4.51451445     8.04559803    21.84375381
H           3.99602675     9.33997536    21.25490570
O          11.68833923    16.09914780    13.68676376
H          12.62211514    16.23886490    13.84416294
H          11.63067436    15.89523697    12.75331402
O          18.33234596    14.40632248    12.68705654
H          18.98864365    14.86249352    13.21375751
H          18.81814384    14.07879639    11.93011570
O           3.53930068     4.36338425    -0.11633099
H           2.90706420     4.97119665     0.26716912
H           4.39011717     4.67919493     0.18798076
O          12.48984909     0.82104433    17.79365349
H          12.85215187    -0.00168119    18.12242508
H          11.76266575     1.01573265    18.38486671
O          11.33125305    14.28855896     1.03000271
H          11.09964180    13.96557808     1.90079033
H          11.86460400    13.59060192     0.64970791
O          16.87289810     6.20472860    12.44139290
H          16.04270744     5.73642206    12.52917385
H          16.63075066     7.13012838    12.47650337
O          21.55495262    22.66637802    11.72234917
H          21.00662613    21.92873573    11.45503998
H          22.10742950    22.84247589    10.96077824
O          18.97954178    19.01484299     0.39211762
H          19.71777153    19.38017845    -0.09550751
H          18.57196426    18.39860725    -0.21646012
O          22.21523476     3.72348881    16.17105293
H          21.34815407     3.38308048    15.95076942
H          22.68425941     2.97013283    16.52980423
O          21.43695259     9.45118618     3.37990570
H          21.72157860     8.95218468     4.14555359
H          21.01261902     8.80409431     2.81648254
O          19.08663177     1.88512456    19.38367462
H          18.83635712     2.63331318    18.84163284
H          18.29004478     1.35819042    19.44709969
O           4.74032354    13.48239136    20.93118286
H           3.98126769    13.94437790    20.57532692
H           4.55654478    12.55750751    20.76672363
O          14.33701801    22.34932518    11.61619854
H          14.51110744    22.94825935    10.89011288
H          14.11625195    22.92157936    12.35105801
O          17.54443932     6.38954306    21.84947395
H          17.47279358     7.09914255    21.21106339
H          17.11283493     6.72847033    22.63374329
O          16.02862549     9.59527969     6.30355644
H          15.53992939     9.00066376     6.87262535
H          15.88580036    10.46205902     6.68372345
O          21.94624710    17.66357803     0.88155472
H          21.46583366    18.22712326     0.27504742
H          22.47962189    18.26753807     1.39825165
O          19.85558510    20.42269325    11.55267620
H          19.20257759    20.99753380    11.95189095
H          19.80159569    19.61157036    12.05804348
O           5.90935469     5.32547998     8.62126732
H           6.29512358     6.02494192     8.09385109
H           6.29411840     5.44065571     9.49012947
O           1.60924399     5.99512243     9.37654305
H           2.21965003     5.25835085     9.40491104
H           0.77123135     5.62256575     9.65071106
O           4.16511679    12.03807354    11.12759781
H           3.33997893    11.91701794    10.65778446
H           4.24362707    12.98616314    11.23340034
O           1.43288195    15.39258194     5.12679100
H           2.29478240    15.71625900     4.86489296
H           0.87726945    15.54534721     4.36246872
O           1.93222010     7.83213472    11.20998669
H           1.79977190     7.18629026    10.51603127
H           2.88310409     7.89670515    11.29877472
O           1.44987452     0.86990535     2.32318020
H           2.27173209     1.23447597     2.65161610
H           1.06468070     0.42781273     3.07975864
O          22.87957001    23.41239548     9.52306557
H          22.51854897    22.63818169     9.09121895
H          23.72569847    23.55127335     9.09760857
O          20.11962700     7.33186388    19.95272827
H          20.64832497     6.59710741    19.64152908
H          19.36118889     7.34541082    19.36892891
O          19.69779205     3.59578753    10.79223061
H          20.22138786     3.28302574    10.05449104
H          18.96765900     2.97916412    10.84620857
O          22.13364410     9.03424454    22.36626053
H          21.61984444     9.44270897    21.66955566
H          21.79447556     8.14086628    22.42168045
O           5.74629164    15.16358376    14.22002125
H           5.08785963    15.49147415    14.83254623
H           5.56904173    14.22500992    14.15762901
O           2.64894462    12.97056198     5.69274902
H           1.95202029    13.51935482     5.33309174
H           3.44832397    13.47948647     5.55775642
O           5.85681295    21.05350876     1.90149510
H           6.10904455    20.77355576     2.78140354
H           5.68390417    21.99090958     1.98875439
O          15.16920376     8.67830276    12.94899082
H          15.22479248     9.47055531    12.41469097
H          14.96500206     8.99634075    13.82841396
O           6.84952116     4.16683006    14.87323570
H           7.14836264     4.08430767    15.77883816
H           6.75568533     5.10962009    14.73695278
O          14.60417461     8.60115433    19.31970406
H          15.10260487     8.19222736    18.61218834
H          14.64412594     9.53853703    19.13010025
O          22.74477768    11.56204700    19.51624680
H          21.90479088    11.10862446    19.58740807
H          23.39919090    10.86871338    19.60146523
O          20.83861732     6.48437452    22.79449463
H          20.29246330     6.24725389    22.04501343
H          20.30148315     6.27403307    23.55834961
O           2.39244437     3.08161354     6.63925934
H           2.11404967     3.97724581     6.44802094
H           3.34419417     3.13942003     6.72330475
O          21.60614777    18.90984344    13.50926208
H          20.99964523    19.32645226    14.12149239
H          22.36942101    19.48735237    13.49794388
O          14.50530815    18.11028481     4.21071625
H          14.66827297    17.18394661     4.38840294
H          14.28850746    18.14089584     3.27889442
O          21.35607338    17.42361069    16.07756996
H          20.77784348    18.13465500    15.80135155
H          22.21808052    17.83241272    16.15540123
O          22.29466820     0.77965391    13.78415489
H          22.02250099     1.69618642    13.73805141
H          22.00902557     0.40282884    12.95190334
O          10.49947643    18.14773750    21.71792984
H          10.83655834    17.25193214    21.70604706
H          10.04332638    18.22089958    22.55626488
O          20.86934471     3.65542746     1.31753170
H          20.93326569     2.77684593     0.94304478
H          20.03280449     3.99228048     0.99665463
O          11.70188427    23.22406578    21.69566536
H          12.51449490    23.37180138    22.17947388
H          11.32583332    22.43872452    22.09323311
O           4.26338339    11.36038399     7.43054962
H           3.69568038    11.73082829     6.75474167
H           3.70737243    11.30758095     8.20791435
O           1.88855040    11.21224403     9.27962303
H           1.58858359    10.35053349     8.99030304
H           1.08812869    11.67166901     9.53355980
O          21.44784355    19.25317764    22.41239929
H          21.40813637    19.19386101    21.45786476
H          22.37238884    19.12133789    22.62231445
O          12.93822765     4.49203157    21.16983986
H          12.88504887     5.42787790    21.36373711
H          12.03000832     4.22466040    21.02883720
O          18.19293022    10.79362011    19.49603271
H          17.38614273    10.79944706    20.01109695
H          17.91686630    11.04834938    18.61561775
O          13.37438297     8.94323540    15.84061050
H          13.10152149     9.56368256    16.51649857
H          12.55440426     8.60252762    15.48313999
O          15.45423508    17.78124809    18.51126289
H          14.66911983    17.38176727    18.13677406
H          15.12236404    18.38137245    19.17905426
O           6.82229948    16.20859718     0.86792958
H           7.18551588    15.59906578     1.51040661
H           6.95800734    17.07349777     1.25492203
O          18.65902901    19.47265816    19.79188728
H          18.19303703    19.07829285    20.52915382
H          18.17096710    19.18695259    19.01961899
O          15.26340771    14.99018669    21.56101799
H          14.34049892    14.97596359    21.81452942
H          15.49257374    15.91937637    21.54308510
O          10.31732750     3.38930511    20.10913849
H          10.19001007     2.44154978    20.06692505
H          10.38729858     3.66254520    19.19443893
O          15.83430672    12.37944984    21.15587234
H          15.98784065    12.25370979    22.09227371
H          15.52492428    13.28233624    21.08300591
O          17.02618980    14.24286842     8.74456406
H          17.83225632    14.50813484     9.18741989
H          16.63357353    15.06442833     8.44939423
O          11.13729286    22.51099586    12.02739620
H          11.54676151    22.84563637    11.22953415
H          10.87750912    21.61664391    11.80630779
O           0.90610188    20.71125412    15.07124233
H           0.65285462    20.82060051    14.15464973
H           1.02603972    21.60411263    15.39474201
O          20.91275787     1.07671726    17.74394035
H          21.54516220     0.73697174    18.37708282
H          20.14117432     1.29185617    18.26797104
O          14.74699879     7.52201891    10.11415672
H          15.51847649     8.06479168     9.95151520
H          14.91431236     7.11678839    10.96505356
O          15.89612103    15.44360924     3.96298981
H          15.22829819    14.83639336     3.64434624
H          16.43465424    14.91831017     4.55483055
O          22.84848022    10.85273743    10.46825218
H          22.23562431    10.25793839    10.90051842
H          22.81865311    11.65155888    10.99477386
O          12.28133488     5.01076412     2.54006958
H          12.43173695     5.19122314     3.46799469
H          13.15784454     4.89334679     2.17376900
O           6.08056211    16.18899727    18.19016266
H           6.67083883    15.72982597    18.78763008
H           5.92185736    17.03336906    18.61216164
O          17.53208733    14.22463989     0.13557445
H          16.82077408    13.60454464     0.29603493
H          18.03192711    14.23221970     0.95186722
O           4.10181761     5.36261606    15.23767471
H           3.32601333     5.74527121    14.82787514
H           4.55856085     4.92205906    14.52106762
O          12.04648018    22.92039680     8.83193016
H          12.92491150    23.05427170     9.18783379
H          12.07168007    22.04018593     8.45666313
O           8.17296791     9.77470589     9.38451004
H           8.06414032    10.54289722     9.94510651
H           7.31335974     9.35363007     9.38568115
O          20.49508858    11.65686321     6.27984238
H          19.92946243    10.96344662     5.94003105
H          21.27433586    11.19805050     6.59368324
O          15.34553528    10.94709396    11.32349586
H          15.35475826    11.77645683    11.80130577
H          14.89038181    11.14698410    10.50550365
O          11.75339890     8.72807789    13.20436287
H          11.14514446     8.21774292    13.73898029
H          12.04637718     8.11851788    12.52699089
O          20.04778290    12.78998756    17.05418587
H          20.68780136    12.19710636    16.66035843
H          20.45095634    13.65563583    16.98835182
O           6.60008764    21.09641075     4.42626381
H           6.70504141    21.83493042     5.02610016
H           6.07294226    20.46415329     4.91473198
O           9.96679020    21.50094414    23.04438019
H           9.03464890    21.71801376    23.05933380
H           9.99131870    20.54596138    23.10469818
O          11.62281704    11.53502750    15.84922028
H          11.95353127    12.05128765    16.58429527
H          10.75949287    11.23661900    16.13532639
O          15.93948364    19.28394127     9.67624664
H          15.26172161    19.74208641     9.17928123
H          16.40646553    19.97838974    10.14089966
O           7.42717695     6.70781946    14.41663742
H           7.23200750     7.49757719    13.91223335
H           7.70741987     7.03316259    15.27211857
O           5.82754660     2.96220732    11.12896824
H           6.49612570     3.17269325    11.78083229
H           6.26532507     3.08916950    10.28726673
O           2.77752852    17.57975388    18.08363533
H           3.62802291    17.69747543    18.50675774
H           2.47986770    16.71945572    18.37947083
O          19.34658813    15.25044632     9.91621017
H          18.80334473    15.96193886    10.25517654
H          20.20946884    15.64591980     9.79265404
O           3.29845786    20.40818787     1.25533974
H           3.07338500    19.48541069     1.13678944
H           4.11782789    20.39323997     1.74995339
O           7.99741507     8.13290501    21.02744865
H           8.08346367     7.18567419    20.91983604
H           8.02029228     8.26941395    21.97458839
O          23.79549599    11.85813618    13.41461754
H          23.43459892    12.53651142    12.84383583
H          23.16171074    11.14243889    13.36640549
O           7.85770178     3.47231150     3.88530159
H           7.58049345     3.59253693     2.97704315
H           8.75139046     3.13564873     3.82039261
O          18.57243347     1.56659305     7.16247749
H          17.97545624     1.82532775     6.46040535
H          19.21799469     2.27232742     7.20018578
O          17.33626556    13.00774956    17.86593437
H          17.24416351    13.91646004    18.15228081
H          18.22364426    12.95736408    17.51061630
O          15.43958759    22.74233055     6.44030762
H          16.33628654    22.41922760     6.52844048
H          15.53391457    23.69134903     6.35846710
O          17.21552658    15.58225822    18.53223991
H          17.94778061    15.95997238    19.01944542
H          16.51904488    16.23512268    18.60232162
O          19.29508591    21.21454048     9.06115150
H          19.35169411    20.65444946     9.83531189
H          20.20108604    21.30896187     8.76707268
O           9.71189213    18.87981796    17.36084938
H           9.67866039    19.43169212    18.14223289
H           9.08929634    18.17488861    17.53884315
O          14.22305584     3.21436882     1.22454560
H          13.72460842     2.40028191     1.29557145
H          15.07314682     3.00946236     1.61389077
O          19.12001228    15.12658310     2.46076775
H          18.79489326    14.77086449     3.28780746
H          18.91810226    16.06114388     2.50615215
O          18.37574959     4.90634441    14.34409714
H          18.73153305     5.64467907    14.83858013
H          17.76822662     5.30560970    13.72141552
O           7.01913023    17.79574776    11.79399395
H           7.31628752    18.67346382    11.55411053
H           6.07396078    17.81348038    11.64375496
O          21.23717117    12.49629021     0.85127366
H          20.86041641    12.01150608     0.11692249
H          21.04059601    13.41315460     0.65905011
O          17.94278526     9.83933449    12.80118942
H          17.24135208    10.11681557    12.21193027
H          17.51278877     9.72626114    13.64886189
O           5.56541395     9.41031742    10.20227051
H           5.45380163     8.75229263    10.88840294
H           4.90970373    10.07838631    10.40217400
O          14.97778702    13.45644379    13.03251553
H          14.97821712    13.42874908    13.98931503
H          15.39946270    14.28823853    12.81679058
O           5.74888945     0.67929399     9.03132820
H           5.17365599     0.65442169     9.79599762
H           5.23944807     0.26510349     8.33480453
O           8.72114182     7.90595007    11.60390377
H           8.33790016     8.41355705    12.31923008
H           8.93040466     8.55662918    10.93378735
O          10.47837067     3.41103172    17.35680199
H          10.34933662     2.77449512    16.65366554
H          10.71149635     4.22237730    16.90558052
O          15.85253620    22.37300682    17.50066757
H          15.09643269    22.24821854    18.07422447
H          16.40946770    22.99394798    17.97023392
O           0.43876904    18.43797112     5.78910065
H           1.30968821    18.75030899     6.03441238
H           0.35813016    18.65776443     4.86097336
O          18.23031235    22.44626808    21.65342331
H          17.75052261    23.21397781    21.34253120
H          18.87498283    22.27275085    20.96747398
O           8.50321960    16.19580460    10.06945038
H           8.04824829    16.96712685    10.40752792
H           9.15410995    16.54847145     9.46265602
O           9.34169388     1.04985106    12.52474213
H           9.88589859     1.77809703    12.22519016
H           9.79241848     0.26749673    12.20693684
O           0.70507115     7.34741640    19.24184227
H           0.00704639     7.02599096    18.67115784
H           1.35373843     6.64354181    19.24660301
O          12.88931084    16.92290306    17.77617836
H          12.72532272    16.30401230    17.06462097
H          12.33293438    16.61713600    18.49254608
O          23.51011467     3.35955811    19.93890381
H          24.17472458     3.27235174    20.62221909
H          22.73194695     2.94083881    20.30681801
O          13.31468868     2.21162605     4.13133049
H          13.54998112     1.96540821     5.02589607
H          14.02455139     2.78726053     3.84677315
O          15.73753834    19.25310135    22.24358940
H          15.98614502    20.08757973    22.64117432
H          16.48014450    18.67454720    22.41691780
O           9.07057953    11.12545300    16.79911232
H           8.67719078    10.66584969    17.54089546
H           8.54975510    11.92339706    16.70823860
O          16.77264977     5.76486731     2.15523052
H          15.84446716     5.97772741     2.25217533
H          17.19772911     6.20656919     2.89037609
O           8.51651955     6.09686422     0.99594986
H           9.19246674     6.34775496     1.62553799
H           8.93728638     5.43924952     0.44211686
O          22.69961357    22.28034019     1.63607228
H          23.17882729    22.73719597     0.94479096
H          22.89107895    21.35418701     1.48836911
O           5.14212370     9.27106667    13.99504280
H           4.23727751     9.33646202    13.68974113
H           5.07499647     9.29305077    14.94963360
O           5.21988440     3.14807367     7.17860603
H           5.53003073     3.96221828     7.57510185
H           5.94921827     2.53721237     7.28420258
O          11.24138927     7.97212839     9.53203011
H          11.66019440     8.68285370    10.01752281
H          11.27941704     8.25191116     8.61742210
O          17.03666687     9.10100079     9.74038696
H          17.75805473     9.57013607     9.32116890
H          16.56041336     9.77631855    10.22346115
O          14.52224350     0.70272124     9.74628830
H          14.29593468     1.62928617     9.82687187
H          15.40390015     0.70304573     9.37357712
O           7.43003225     8.45516109     0.67849839
H           7.97301435     7.69049788     0.87004387
H           6.54888868     8.19705963     0.94905579
O           2.44709754     1.44253457    13.69459534
H           2.00975204     2.08766413    13.13892555
H           2.31870246     1.76764762    14.58568859
O          19.97985077     6.89083147    15.67071629
H          20.64111519     6.57792139    16.28800583
H          19.60355759     7.66267633    16.09367180
O           7.92099333     7.04483843    17.24147797
H           7.78288221     6.09784937    17.26070213
H           8.52558136     7.21343088    17.96416855
O           3.54895568     4.18781376     9.34752846
H           3.85381103     3.32987070     9.05218315
H           4.31465673     4.75603485     9.26351738
O          15.61861038    12.31141567     0.78350461
H          14.92024136    11.67751789     0.94686329
H          15.20898724    13.16326904     0.93445504
O           1.87166178     2.65323496    22.01043129
H           1.39931643     2.07728004    22.61159515
H           2.45205474     3.16418362    22.57461739
O          17.41851997     2.41051102     4.55961227
H          18.33779526     2.23419619     4.35941887
H          16.95572281     2.22582388     3.74233437
O           7.03210020    14.46377945    22.19672394
H           6.21251822    13.99881363    22.02843285
H           6.81633139    15.08564186    22.89168167
O          11.98534298    11.09985638    18.85444832
H          12.92466831    11.27642250    18.90665245
H          11.92427444    10.26189518    18.39583969
O          22.77320099    17.99312782    10.93337059
H          23.34426689    18.70718765    10.65011597
H          22.43135262    18.28120232    11.77976608
O           2.33325934    16.83800125     8.92597771
H           1.91769183    16.63080025     8.08895874
H           1.89157069    16.27220154     9.55923271
O          13.53007889     8.76638889     8.07335663
H          13.66218090     8.32007027     8.90976524
H          13.58755112     9.69764519     8.28710938
O           8.43438911     3.46333647    12.82813931
H           8.16036034     3.53222942    13.74268532
H           8.39253235     2.52666140    12.63547516
O           8.78142738    15.01132202    16.03616333
H           8.95027733    14.47188759    15.26367855
H           8.35481644    15.79594803    15.69178486
O          13.17938042     8.53278351     4.99046135
H          13.16405678     7.62393618     5.29044724
H          13.26282310     9.04839325     5.79259300
O           4.08787107    16.33555222    16.07578468
H           4.85831213    16.63575363    16.55799866
H           3.35684180    16.48481178    16.67540741
O           0.64968079    22.87427521     4.48031044
H           1.07271731    22.02252388     4.37171745
H          -0.26032668    22.66467094     4.69050980
O          23.32097244    16.35930061    19.50933838
H          22.87542534    17.18504333    19.31995201
H          22.89721680    16.03529739    20.30412483
O          14.06553364    16.45437050    14.60159874
H          14.86526680    16.27266884    14.10799694
H          14.12378883    17.38499451    14.81787300
O          22.43890572    10.26689529     7.68961716
H          22.52924919    10.60422134     8.58084297
H          22.86765671     9.41140079     7.71271515
O           2.31165290    15.23502541    19.72371292
H           2.13991523    14.57322502    19.05381966
H           1.48560107    15.71138000    19.80712128
O          20.42952919    20.20863533    15.90299988
H          19.59132957    20.66984749    15.93362713
H          20.89515495    20.50586319    16.68471527
O          17.95987701     8.67777634     3.46829224
H          18.42136192     8.92506027     4.26961327
H          17.21867752     9.28174114     3.42266846
O           1.48099005     3.88127613    12.50845242
H           0.81784695     4.05418968    11.84018993
H           1.07943213     4.17531347    13.32608604
O          23.10263252     4.40272999    10.44404030
H          22.64215279     3.79115868     9.86943436
H          22.56752205     5.19620991    10.42733002
O          16.59191895    19.88820076     4.31389046
H          16.97246361    19.96005440     5.18925095
H          15.82669640    19.32518959     4.43086243
O          10.51653194    11.56385422     6.86259460
H           9.79476070    11.99956703     6.40934944
H          10.59188843    12.02913857     7.69569969
O          14.32900143    12.95182037     4.30406570
H          13.54900074    12.73544884     3.79317093
H          14.10625553    12.69893932     5.19998169
O          17.27101707    18.48392677    14.49378395
H          17.60651016    19.27754593    14.91073036
H          16.31980133    18.55542183    14.57323074
O          14.28147125    14.69450569     1.21711361
H          13.44967461    15.00023651     1.57887948
H          14.68001366    15.47777557     0.83779538
O           8.03014374    12.31929684    10.60271454
H           7.44562292    12.56314278     9.88500404
H           8.05703545    13.09447193    11.16361618
O           7.01686811     5.55057526    11.32577610
H           7.60225439     4.87160540    11.66126823
H           7.46656752     6.37260771    11.52139187
O           1.10521376    14.26750183    23.57024574
H           0.34786958    14.26197433    22.98489761
H           1.63635600    13.52529812    23.28170967
O           8.86875343    22.31072426    15.80092525
H           8.23620033    22.24735260    15.08531666
H           9.55537796    21.68515205    15.56976128
O           2.83165336     8.94122505     6.80599594
H           3.45653510     9.49198151     7.27761459
H           2.50894332     9.49792099     6.09735107
O           7.38029242    22.67338181    13.36681080
H           7.85850286    23.44636917    13.06674576
H           6.47636557    22.97327042    13.46280193
O           9.52169418    10.22704697     1.03452122
H           8.71605015     9.72333527     1.15047085
H          10.13390446     9.61054420     0.63283074
O           1.72383654     9.37899399    17.30966377
H           1.61947978     8.72310543    17.99897575
H           2.30631614     8.96593571    16.67222214
O          10.46060467     0.55457127     5.65350342
H          10.50574493    -0.24647222     6.17554092
H          10.33141232     0.24847211     4.75581551
O          13.87573242    17.56190681    11.26937866
H          13.73965168    18.31280708    11.84718800
H          14.69047642    17.16611099    11.57884502
O           5.22847319    -0.12486015    22.02030754
H           5.05948591     0.80602801    22.16564369
H           5.87562513    -0.14358746    21.31527138
O          22.12122917    23.26419067    19.76342964
H          22.96707916    23.53670120    20.11910439
H          21.49611282    23.44802666    20.46461868
O          20.48296547     8.07438469    13.14538097
H          19.70717430     8.46256161    12.74078465
H          20.13430595     7.46871996    13.79947376
O          10.95943642    13.32560062     3.59222031
H          11.37333870    12.46344376     3.55219269
H          10.02133465    13.13935089     3.63106537
O           0.32020348     1.77992713    17.43456459
H           0.46458405     1.91233242    18.37150383
H           0.88157529     2.42965841    17.01154900
O          14.88960552    22.50993347     2.91929913
H          14.44389725    21.69552803     2.68623638
H          15.18107224    22.37392807     3.82084274
O          21.23475266    18.74518394    19.51953888
H          20.38027382    19.15988541    19.63835716
H          21.71130371    19.34013939    18.94060898
O          14.45643139    23.32614517    14.99243355
H          13.56696510    22.97248268    14.99035072
H          14.86236000    22.94887924    15.77289772
O          12.52164459     2.50822258    12.37942982
H          12.46833420     3.44741011    12.20246506
H          12.06736851     2.09950829    11.64266872
O           5.10491323     5.27267456    17.80139542
H           4.90597868     5.34751129    16.86809158
H           5.94701719     5.71623564    17.90311050
O          15.89764023    10.54873657     3.53833771
H          15.18335819    11.16912651     3.39291000
H          15.59786129    10.00477600     4.26667213
O           8.21422005    13.09289455     6.00660515
H           7.95186377    12.17241001     6.01701736
H           7.87585211    13.44770050     6.82870674
O          17.52399635     1.98117912    11.07893944
H          17.54241562     1.07604587    10.76809120
H          16.80089188     2.00451326    11.70568180
O          11.69269085    15.10972214    16.23278236
H          10.75010204    15.11230087    16.39937019
H          11.78627396    15.53331757    15.37952900
O          14.32742310     7.07444715     2.92917061
H          14.94194031     7.66600657     2.49482346
H          13.91957283     7.61013842     3.60955620
O          13.60832214    19.09986877    20.51495552
H          14.45330048    18.91731834    20.92595291
H          13.03840351    19.35282707    21.24120331
O          10.15684891     8.62599850    15.67785168
H           9.72428036     9.45566750    15.87975407
H          10.49120808     8.31892395    16.52054977
O          20.61149979    17.38216782     5.42517853
H          20.65987015    16.51545715     5.02181244
H          21.20602417    17.33152771     6.17365074
O          21.93706512    14.99759102    21.42743683
H          21.82762337    14.94929314    22.37713242
H          21.05884933    14.84817505    21.07722855
O           3.05457664    19.27446747     5.65141106
H           3.62434173    19.71306419     6.28325844
H           3.48045135    18.43279266     5.48878860
O          17.11184692    21.26791573    11.16265965
H          17.57623482    21.59761238    11.93199348
H          16.27042389    21.72401810    11.17710018
O           7.45459890    23.06439209     6.25691795
H           8.16795921    23.60165024     6.60145378
H           6.69136953    23.64189339     6.27122116
O          19.52243423     5.19220638     4.68260956
H          19.53003311     4.35775614     4.21371078
H          19.91197395     4.99220371     5.53378105
O          13.03949165    12.55134010    22.84873772
H          13.94629097    12.24495792    22.83994293
H          12.51830769    11.76115799    22.70657158
O           0.43123883    23.18667603    16.03994942
H           0.08396403    23.54072189    15.22124100
H           0.18673579    23.83237457    16.70291519
O           3.71843123     1.44371188    11.00701809
H           3.42881179     1.30586708    11.90887833
H           4.40157652     2.11082172    11.07415676
O           5.03704023    11.15601826     3.42282486
H           4.09730291    11.13259602     3.24233627
H           5.44815207    11.09311104     2.56069946
O           9.05114174    12.89762878    14.01410103
H           8.25515747    12.37743664    14.12382317
H           8.81435585    13.56478786    13.36984730
O          15.90111160     1.30523098     2.41573048
H          16.27566528     1.25324690     1.53639042
H          15.56005096     0.42665687     2.58311367
O          17.95858383    16.63625908     5.95733833
H          17.59810257    16.72042274     5.07461548
H          18.85595322    16.96062469     5.88152122
O           6.86710501     7.52846861     7.02357292
H           7.38751364     7.92736673     6.32623100
H           5.95982313     7.71396208     6.78136253
O           4.36531591    11.11885262    19.75186920
H           5.17875814    10.65109348    19.56280327
H           4.24163198    11.69788361    18.99976730
O          17.54177666    17.50210190     3.00642014
H          16.91073036    16.82640648     3.25430870
H          17.06180763    18.32473183     3.10203934
O           6.33209181    23.20850182    19.51526070
H           7.14186811    22.76039124    19.27094460
H           5.64854574    22.75264549    19.02414703
O           3.75092292    14.91411018    11.50389004
H           3.88329482    15.12368393    12.42843723
H           2.79997802    14.88349342    11.39901161
O          17.78692245    17.45484161    10.51411819
H          17.47895813    17.33741951    11.41278648
H          17.15936470    18.06290436    10.12339973
O          17.57372284    20.84938812     6.77194977
H          18.28249931    21.20968056     6.23897934
H          17.94912529    20.77205276     7.64905930
O          12.04418755     5.48316097    10.44789505
H          11.43394661     5.47647190    11.18531990
H          12.39350128     6.37424040    10.43415260
TV         23.54200000     0.00000000     0.00000000
TV          0.00000000    23.53600000     0.00000000
TV          0.00000000     0.00000000    23.66000000

